atom_style full

#-----------------------------------BUCKINGHAM---------------------------------------
pair_style buck/long/coul/long cut long 11.0
bond_style harmonic
angle_style harmonic
dihedral_style none
improper_style harmonic

kspace_style pppm 0.0001
pair_modify shift yes
read_data data_buck.data
Reading data file ...
  orthogonal box = (-13.5 -13.5 -13.5) to (13.5 13.5 13.5)
  1 by 1 by 2 MPI processor grid
  reading atoms ...
  1050 atoms
  reading velocities ...
  1050 velocities
  scanning bonds ...
  3 = max bonds/atom
  scanning angles ...
  3 = max angles/atom
  scanning impropers ...
  1 = max impropers/atom
  orthogonal box = (-13.5 -13.5 -13.5) to (13.5 13.5 13.5)
  1 by 1 by 2 MPI processor grid
  reading bonds ...
  630 bonds
  reading angles ...
  630 angles
  reading impropers ...
  210 impropers
Finding 1-2 1-3 1-4 neighbors ...
  special bond factors lj:    0        0        0       
  special bond factors coul:  0        0        0       
     3 = max # of 1-2 neighbors
     2 = max # of 1-3 neighbors
     2 = max # of 1-4 neighbors
     3 = max # of special neighbors
  special bonds CPU = 0.000 seconds
  read_data CPU = 0.015 seconds

group Na type 1
210 atoms in group Na
group N type 2
210 atoms in group N
group O type 3
630 atoms in group O

# 1 Na 2 N 3 O
pair_coeff 1 1 9778.06 0.3170 24.18
pair_coeff 1 2 18139.97 0.2884 79.149
pair_coeff 1 3 24650.29 0.2727 79.193
pair_coeff 2 2 33652.75 0.2646 259.079
pair_coeff 2 3 45730.51 0.2513 259.22
pair_coeff 3 3 62142.9 0.2392 259.367
neighbor 2.0 bin
#neigh_modify one 5000

neigh_modify delay 5 check yes
replicate 6 4 2
Replication is creating a 6x4x2 = 48 times larger system...
  orthogonal box = (-13.5 -13.5 -13.5) to (148.5 94.5 40.5)
  2 by 1 by 1 MPI processor grid
  50400 atoms
  30240 bonds
  30240 angles
  10080 impropers
Finding 1-2 1-3 1-4 neighbors ...
  special bond factors lj:    0        0        0       
  special bond factors coul:  0        0        0       
     3 = max # of 1-2 neighbors
     2 = max # of 1-3 neighbors
     2 = max # of 1-4 neighbors
     3 = max # of special neighbors
  special bonds CPU = 0.008 seconds
  replicate CPU = 0.023 seconds

write_restart restart.NaNO3_supercell
System init for write_restart ...
PPPM initialization ...
  using 12-bit tables for long-range coulomb (../kspace.cpp:342)
  G vector (1/distance) = 0.24196708
  grid = 72 50 30
  stencil order = 5
  estimated absolute RMS force accuracy = 0.034752741
  estimated relative force accuracy = 0.00010465685
  using double precision KISS FFT
  3d grid and FFT values/proc = 83435 54000
Generated 0 of 3 mixed pair_coeff terms from geometric mixing rule
Neighbor list info ...
  update: every = 1 steps, delay = 5 steps, check = yes
  max neighbors/atom: 2000, page size: 100000
  master list distance cutoff = 13
  ghost atom cutoff = 13
  binsize = 6.5, bins = 25 17 9
  1 neighbor lists, perpetual/occasional/extra = 1 0 0
  (1) pair buck/long/coul/long, perpetual
      attributes: half, newton on
      pair build: half/bin/newton
      stencil: half/bin/3d
      bin: standard
restart 100 NaNO3_restart_equil_1 NaNO3_restart_equil_2

#--------------------------VARIABLES GLOBALES--------------------------------------------
#variable	boltzmann equal 8.617333262e-5
#variable        temp equal temp
#variable        step equal step
#variable        time equal time
#variable        avogadro equal 6.02214e23
#variable        vol equal vol
#variable        volCM3 equal  (vol*1.0e-24)
#variable        eTotal equal etotal
#variable        NumAtoms equal count(all)
#variable        densidad equal ((84.994/5)*v_NumAtoms)/(v_avogadro*v_vol*1.0e-24)
#variable        etotalatom equal etotal/atoms
#compute         msd all msd
#variable	msd equal c_msd[4]

compute         Stress all stress/atom NULL virial
compute         pe all pe/atom
compute         ke all ke/atom

#### ---------------------------------------------OUTPUT FILES---------------------------------------------------
#fix             impDensity all print 1000 "time: ${time} density:  ${densidad}" file densityTime.data screen no
#fix             impVol all print 1000 "time: ${time} vol: ${volCM3}" file timeVol.data screen no
#fix             impEtotal all print 1000 "time: ${time} Total_Energy: ${eTotal}" file totalE.data screen no
#fix		impMSD all print 1000 "time: ${time} MSD: ${msd}" file stepMSD.data screen no
#fix		impTempStep all print 1000 "time: ${time} temperature: ${temp}" file tempTime.data screen no
#fix		impDensityTemp all print 1000 "temp: ${temp} density: ${densidad}" file densityTemp.data screen no

thermo_style custom step etotal ecoul ebond press lx ly lz vol temp
#thermo_modify flush yes lost ignore lost/bond ignore
thermo 1000

##### Minimizaci√≥n
minimize     0 1.0e-4 2000 20000
Switching to 'neigh_modify every 1 delay 0 check yes' setting during minimization
PPPM initialization ...
  using 12-bit tables for long-range coulomb (../kspace.cpp:342)
  G vector (1/distance) = 0.24196708
  grid = 72 50 30
  stencil order = 5
  estimated absolute RMS force accuracy = 0.034752741
  estimated relative force accuracy = 0.00010465685
  using double precision KISS FFT
  3d grid and FFT values/proc = 83435 54000
Generated 0 of 3 mixed pair_coeff terms from geometric mixing rule
Per MPI rank memory allocation (min/avg/max) = 87.99 | 87.99 | 87.99 Mbytes
   Step         TotEng         E_coul         E_bond         Press            Lx             Ly             Lz           Volume          Temp     
         0  -1540888.2     -268208.33      1254.1155      1182.8417      162            108            54             944784         0            
      1000  -1686219.7     -378666         179.86181     -6003.0583      162            108            54             944784         0            
      2000  -1687854.9     -380462.39      178.85709     -5936.2851      162            108            54             944784         0            
Loop time of 848.896 on 2 procs for 2000 steps with 50400 atoms

99.9% CPU use with 2 MPI tasks x no OpenMP threads

Minimization stats:
  Stopping criterion = max iterations
  Energy initial, next-to-last, final = 
     -1540888.20613519  -1687852.70849266  -1687854.94816468
  Force two-norm initial, final = 1941.9624 38.81476
  Force max component initial, final = 64.878388 7.77745
  Final line search alpha, max atom move = 0.0035374753 0.027512537
  Iterations, force evaluations = 2000 3960

MPI task timing breakdown:
Section |  min time  |  avg time  |  max time  |%varavg| %total
---------------------------------------------------------------
Pair    | 633.07     | 665.79     | 698.5      | 126.8 | 78.43
Bond    | 8.7048     | 9.1221     | 9.5394     |  13.8 |  1.07
Kspace  | 119.15     | 152.3      | 185.44     | 268.6 | 17.94
Neigh   | 15.386     | 15.388     | 15.391     |   0.1 |  1.81
Comm    | 2.0418     | 2.0543     | 2.0668     |   0.9 |  0.24
Output  | 1.3239     | 1.3239     | 1.3239     |   0.0 |  0.16
Modify  | 0          | 0          | 0          |   0.0 |  0.00
Other   |            | 2.921      |            |       |  0.34

Nlocal:          25200 ave       25201 max       25199 min
Histogram: 1 0 0 0 0 0 0 0 0 1
Nghost:        35706.5 ave       35715 max       35698 min
Histogram: 1 0 0 0 0 0 0 0 0 1
Neighs:    6.17798e+06 ave 6.17998e+06 max 6.17597e+06 min
Histogram: 1 0 0 0 0 0 0 0 0 1

Total # of neighbors = 12355952
Ave neighs/atom = 245.15778
Ave special neighs/atom = 2.4
Neighbor list builds = 85
Dangerous builds = 0
reset_timestep 0

dump mydump all  custom 1000 jayaraman_original.dump  id element x y z vx vy vz
dump_modify     mydump element Na O N first yes


timestep        1  # 1 fs

#---------------------------------Equilibrio inicial---------------------------------------------

fix nve all nve
velocity        all create 300.0 4193182 rot yes mom yes dist gaussian
run 30000
PPPM initialization ...
  using 12-bit tables for long-range coulomb (../kspace.cpp:342)
  G vector (1/distance) = 0.24196708
  grid = 72 50 30
  stencil order = 5
  estimated absolute RMS force accuracy = 0.034752741
  estimated relative force accuracy = 0.00010465685
  using double precision KISS FFT
  3d grid and FFT values/proc = 83435 54000
Generated 0 of 3 mixed pair_coeff terms from geometric mixing rule
Per MPI rank memory allocation (min/avg/max) = 83.49 | 83.68 | 83.87 Mbytes
   Step         TotEng         E_coul         E_bond         Press            Lx             Ly             Lz           Volume          Temp     
         0  -1642786       -380462.39      178.85709     -3755.6761      162            108            54             944784         300          
      1000  -1642690.4     -367525.03      5004.2012     -4829.0162      162            108            54             944784         149.28396    
      2000  -1642682.8     -367771.21      4904.5558     -4843.2456      162            108            54             944784         152.95717    
      3000  -1642688.6     -368120.36      4656.8109     -5183.0205      162            108            54             944784         157.59099    
      4000  -1642683.6     -368441.42      4781.0744     -4949.3229      162            108            54             944784         158.67677    
      5000  -1642685.9     -368230.71      4789.8142     -5004.7509      162            108            54             944784         160.42682    
      6000  -1642685       -368903.24      4712.0242     -5104.8973      162            108            54             944784         163.07207    
      7000  -1642683.9     -369379.55      4808.546      -4867.3271      162            108            54             944784         162.78201    
      8000  -1642687.4     -369199.68      4833.6496     -4880.1021      162            108            54             944784         164.09299    
      9000  -1642688       -368963.03      4689.8506     -4990.2914      162            108            54             944784         165.22258    
     10000  -1642686.2     -369229.53      4762.9413     -4953.5597      162            108            54             944784         166.25469    
     11000  -1642688.5     -369444.61      4715.265      -4937.0642      162            108            54             944784         167.33224    
     12000  -1642691.1     -369880.19      4788.4132     -5106.2729      162            108            54             944784         168.146      
     13000  -1642688.8     -369502.76      4826.6912     -4956.2559      162            108            54             944784         168.46875    
     14000  -1642689.5     -369961.89      4749.04       -4772.8329      162            108            54             944784         169.81694    
     15000  -1642688.1     -370606.54      4765.2667     -4876.5353      162            108            54             944784         170.60631    
     16000  -1642689.7     -370673.33      4778.629      -4819.8861      162            108            54             944784         170.3586     
     17000  -1642688.3     -370387.54      4761.2035     -4912.3864      162            108            54             944784         171.65023    
     18000  -1642690.8     -370838.29      4773.9202     -4760.213       162            108            54             944784         172.61153    
     19000  -1642689.1     -370107.02      4774.7292     -4842.3456      162            108            54             944784         172.33623    
     20000  -1642689.3     -370981.03      4769.274      -4779.2398      162            108            54             944784         173.60078    
     21000  -1642687.6     -370587.01      4811.447      -5008.421       162            108            54             944784         173.50703    
     22000  -1642690.8     -370526.85      4798.6992     -4919.8024      162            108            54             944784         173.16716    
     23000  -1642691.4     -370361.67      4826.9044     -4913.7851      162            108            54             944784         175.58378    
     24000  -1642691.3     -371157.94      4801.9458     -4671.2418      162            108            54             944784         174.88323    
     25000  -1642692.1     -371201.64      4837.6659     -4794.1335      162            108            54             944784         175.17982    
     26000  -1642689.6     -370375.31      4864.8481     -5091.1163      162            108            54             944784         176.58837    
     27000  -1642686.6     -370385.9       4905.9341     -4862.2264      162            108            54             944784         174.76082    
     28000  -1642689.5     -370655.48      4860.8704     -4825.373       162            108            54             944784         176.16501    
     29000  -1642687.3     -371097.29      4870.879      -4897.0991      162            108            54             944784         175.70218    
     30000  -1642687.7     -371138.8       4863.1361     -5090.5492      162            108            54             944784         176.90959    
Loop time of 3913.06 on 2 procs for 30000 steps with 50400 atoms

Performance: 0.662 ns/day, 36.232 hours/ns, 7.667 timesteps/s, 386.399 katom-step/s
99.6% CPU use with 2 MPI tasks x no OpenMP threads

MPI task timing breakdown:
Section |  min time  |  avg time  |  max time  |%varavg| %total
---------------------------------------------------------------
Pair    | 3134.1     | 3137.1     | 3140       |   5.2 | 80.17
Bond    | 49.672     | 49.923     | 50.174     |   3.5 |  1.28
Kspace  | 585.75     | 586.6      | 587.46     |   3.5 | 14.99
Neigh   | 80.933     | 80.94      | 80.948     |   0.1 |  2.07
Comm    | 14.438     | 16.768     | 19.097     |  56.9 |  0.43
Output  | 28.145     | 28.146     | 28.146     |   0.0 |  0.72
Modify  | 8.389      | 8.4602     | 8.5315     |   2.4 |  0.22
Other   |            | 5.15       |            |       |  0.13

Nlocal:          25200 ave       25259 max       25141 min
Histogram: 1 0 0 0 0 0 0 0 0 1
Nghost:        35812.5 ave       35821 max       35804 min
Histogram: 1 0 0 0 0 0 0 0 0 1
Neighs:    6.18598e+06 ave 6.20828e+06 max 6.16368e+06 min
Histogram: 1 0 0 0 0 0 0 0 0 1

Total # of neighbors = 12371964
Ave neighs/atom = 245.47548
Ave special neighs/atom = 2.4
Neighbor list builds = 586
Dangerous builds = 0
unfix nve

#--------------------------------Calentamiento----------------------------------------------------

fix nvt all nvt temp 293.0 1300.0 $(100*dt)
fix nvt all nvt temp 293.0 1300.0 100
run 300000  #0.3 ns
PPPM initialization ...
  using 12-bit tables for long-range coulomb (../kspace.cpp:342)
  G vector (1/distance) = 0.24196708
  grid = 72 50 30
  stencil order = 5
  estimated absolute RMS force accuracy = 0.034752741
  estimated relative force accuracy = 0.00010465685
  using double precision KISS FFT
  3d grid and FFT values/proc = 83435 54000
Generated 0 of 3 mixed pair_coeff terms from geometric mixing rule
Per MPI rank memory allocation (min/avg/max) = 88.42 | 88.42 | 88.42 Mbytes
   Step         TotEng         E_coul         E_bond         Press            Lx             Ly             Lz           Volume          Temp     
     30000  -1642687.7     -371138.8       4863.1361     -5090.5492      162            108            54             944784         176.90959    
     31000  -1605953.3     -359327.36      8197.4178     -3975.4489      162            108            54             944784         291.98144    
     32000  -1602368.2     -356402.46      8568.8754     -3980.4806      162            108            54             944784         298.9899     
     33000  -1601709.6     -356540.49      8486.9497     -4189.4988      162            108            54             944784         303.73895    
     34000  -1600384.2     -355812.66      8715.151      -4256.9516      162            108            54             944784         306.48842    
     35000  -1599585.2     -354798.23      8648.7648     -4469.151       162            108            54             944784         311.10063    
     36000  -1598241       -354980.58      8920.9648     -3917.9562      162            108            54             944784         314.56611    
     37000  -1597214.3     -354568.68      8945.6054     -4075.9278      162            108            54             944784         318.8166     
     38000  -1596160.8     -353289.29      9073.3067     -4556.5246      162            108            54             944784         321.68601    
     39000  -1595157.7     -353940.04      9223.7598     -4171.9241      162            108            54             944784         324.72595    
     40000  -1594740.2     -353413.09      9303.929      -4051.9779      162            108            54             944784         325.65215    
     41000  -1592954.5     -352879.47      9411.3364     -4139.6874      162            108            54             944784         331.85477    
     42000  -1592577.6     -352639.12      9469.4604     -4243.5576      162            108            54             944784         333.79424    
     43000  -1591611.3     -351904.36      9561.3232     -4187.6605      162            108            54             944784         335.76522    
     44000  -1590280       -352220.87      9712.504      -4405.4723      162            108            54             944784         342.66087    
     45000  -1589454.7     -352027.4       9755.7234     -4102.3095      162            108            54             944784         343.84717    
     46000  -1588705.5     -351313.86      9848.1491     -3977.7806      162            108            54             944784         348.05113    
     47000  -1587477.3     -351001.49      10015.087     -4244.0223      162            108            54             944784         350.8502     
     48000  -1586770.4     -351566.25      10077.519     -4209.736       162            108            54             944784         353.60696    
     49000  -1585182.2     -351068.11      10313.908     -3818.1717      162            108            54             944784         357.17264    
     50000  -1584390.2     -350242.85      10204.114     -3956.0855      162            108            54             944784         362.30428    
     51000  -1583190.7     -349590.89      10366.777     -4080.7084      162            108            54             944784         363.45214    
     52000  -1582302.5     -349639.15      10478.706     -4007.0325      162            108            54             944784         366.59782    
     53000  -1581018.6     -349277.56      10713.598     -3906.7059      162            108            54             944784         371.81152    
     54000  -1580180.4     -348452.81      10747.83      -4186.6245      162            108            54             944784         374.19162    
     55000  -1579157       -348481.72      10826.638     -4034.6784      162            108            54             944784         377.01181    
     56000  -1578291.7     -347199.62      11017.139     -3975.7074      162            108            54             944784         379.1371     
     57000  -1577193.4     -347049.68      10997.87      -4186.933       162            108            54             944784         383.09972    
     58000  -1575369.3     -346996.34      11106.064     -3903.8226      162            108            54             944784         388.90761    
     59000  -1575328.2     -347334.87      11324.497     -3530.758       162            108            54             944784         387.87179    
     60000  -1573578.2     -347025.01      11436.909     -3691.1954      162            108            54             944784         395.25419    
     61000  -1572904.1     -346572.88      11465.424     -3772.041       162            108            54             944784         398.0834     
     62000  -1572153.4     -346721.72      11511.291     -3635.3393      162            108            54             944784         398.3389     
     63000  -1571249.4     -346039.13      11782.375     -3724.6963      162            108            54             944784         400.42431    
     64000  -1569660.1     -345916.92      11775.119     -3708.2936      162            108            54             944784         406.42564    
     65000  -1568936.1     -345823.32      11970.321     -3537.1403      162            108            54             944784         407.52876    
     66000  -1567326.3     -345203         11997.691     -3232.3446      162            108            54             944784         414.42916    
     67000  -1566456.8     -344770.39      12140.267     -3670.0075      162            108            54             944784         415.9755     
     68000  -1565518.1     -343887.86      12310.748     -3607.958       162            108            54             944784         419.01055    
     69000  -1564159.4     -343385.18      12192.977     -3527.674       162            108            54             944784         425.78142    
     70000  -1562848.7     -342292.03      12507.785     -3716.9528      162            108            54             944784         426.80664    
     71000  -1562235.8     -342715.17      12722.468     -3318.6814      162            108            54             944784         427.71739    
     72000  -1560353.4     -341746.71      12622.356     -3689.4536      162            108            54             944784         436.05688    
     73000  -1560083       -342867.01      12756.311     -3479.2001      162            108            54             944784         435.85413    
     74000  -1558242.8     -341365.44      12865.363     -3229.7339      162            108            54             944784         442.39179    
     75000  -1557369.2     -341325.23      13003.888     -3314.1289      162            108            54             944784         443.84588    
     76000  -1556027.8     -340402.45      13314.028     -3617.3957      162            108            54             944784         446.64338    
     77000  -1555874.2     -340644.74      13232.242     -3248.9247      162            108            54             944784         446.51732    
     78000  -1553844       -339174.33      13419.495     -3229.6487      162            108            54             944784         455.62003    
     79000  -1552464.3     -339868.48      13525.821     -3059.2342      162            108            54             944784         460.07182    
     80000  -1552133.3     -339418.02      13484.226     -3381.3711      162            108            54             944784         460.61315    
     81000  -1551229.9     -339052.72      13878.201     -3301.9673      162            108            54             944784         462.45168    
     82000  -1549639.2     -338768.17      13710.752     -3139.3959      162            108            54             944784         469.79205    
     83000  -1548360.8     -338782.62      13964.864     -3003.9077      162            108            54             944784         470.86866    
     84000  -1547645.7     -338422.1       14033.868     -3241.7872      162            108            54             944784         473.78771    
     85000  -1546343.2     -337732.83      14060.686     -2999.3865      162            108            54             944784         479.34876    
     86000  -1545314.6     -337431.66      14216.01      -2918.8051      162            108            54             944784         480.77935    
     87000  -1543779.3     -336357.08      14713.228     -3044.4228      162            108            54             944784         481.43091    
     88000  -1542874.1     -336897.85      14517.986     -3018.8132      162            108            54             944784         487.58102    
     89000  -1542050.9     -336607.28      14722.301     -2839.7551      162            108            54             944784         489.51365    
     90000  -1540593.4     -335103.6       14626.655     -2948.7512      162            108            54             944784         495.7587     
     91000  -1539147.5     -334633.17      14788.75      -2963.4463      162            108            54             944784         498.02881    
     92000  -1537850.7     -334342.37      15028.701     -3080.0353      162            108            54             944784         504.50889    
     93000  -1537117.7     -334218.47      15059.187     -2473.5795      162            108            54             944784         503.01615    
     94000  -1536316.5     -333600.08      15112.533     -2989.2434      162            108            54             944784         508.21873    
     95000  -1534868.7     -332512.18      15259.265     -3192.122       162            108            54             944784         509.92789    
     96000  -1534212.4     -333841.51      15169.463     -2706.6894      162            108            54             944784         515.7009     
     97000  -1533306.4     -333607.48      15621.06      -2708.593       162            108            54             944784         514.84142    
     98000  -1531987.5     -333032.12      15680.169     -2642.2654      162            108            54             944784         522.87442    
     99000  -1530515       -331858.48      15828.498     -2826.9549      162            108            54             944784         523.91396    
    100000  -1530141.1     -331423.72      15810.864     -2934.2802      162            108            54             944784         526.72108    
    101000  -1528734.9     -331145.87      16241.59      -2564.8531      162            108            54             944784         530.51956    
    102000  -1528078.8     -331142.01      15968.79      -2464.3529      162            108            54             944784         532.85845    
    103000  -1527189.2     -331089.29      16174.52      -2970.5666      162            108            54             944784         534.63077    
    104000  -1525128.8     -329688.29      16329.537     -2824.991       162            108            54             944784         542.20513    
    105000  -1523686.1     -329261.76      16508.589     -2289.7167      162            108            54             944784         545.11839    
    106000  -1522978.1     -329855.24      16346.58      -2598.6696      162            108            54             944784         550.05037    
    107000  -1522281.6     -329088.97      16754.417     -2660.0277      162            108            54             944784         548.74407    
    108000  -1520642.3     -328862         16562.249     -2133.2478      162            108            54             944784         554.90239    
    109000  -1520318.3     -328979.77      16731.675     -2316.9378      162            108            54             944784         555.98087    
    110000  -1518624       -328850.64      16885.744     -2475.3986      162            108            54             944784         563.8144     
    111000  -1518113       -327267.35      16982.852     -2480.593       162            108            54             944784         561.76409    
    112000  -1516840.8     -327089.3       17113.359     -2530.5663      162            108            54             944784         568.05554    
    113000  -1515676.2     -327653.7       17230.73      -2344.221       162            108            54             944784         569.28863    
    114000  -1515442.9     -327165.96      17265.236     -2205.5617      162            108            54             944784         571.32129    
    115000  -1512571.6     -326183.24      17324.028     -2399.8149      162            108            54             944784         578.63839    
    116000  -1512654.7     -325974.21      17509.306     -2015.3109      162            108            54             944784         580.45126    
    117000  -1511211.1     -325707.79      17529.71      -2383.3203      162            108            54             944784         587.39027    
    118000  -1509108.1     -324846.17      17894.198     -2235.03        162            108            54             944784         589.2349     
    119000  -1508681.7     -325437.43      17739.4       -1961.8341      162            108            54             944784         594.78345    
    120000  -1507558.7     -324303.99      18103.463     -2371.8238      162            108            54             944784         594.30376    
    121000  -1506454.3     -324190.13      17986.706     -2050.2319      162            108            54             944784         598.99309    
    122000  -1505728.2     -324452.32      17995.848     -2041.3285      162            108            54             944784         603.73928    
    123000  -1504096.7     -323783.75      18223.299     -2170.5226      162            108            54             944784         611.06577    
    124000  -1503970.8     -323012.01      18317.525     -2040.3271      162            108            54             944784         607.1099     
    125000  -1503023       -323100.61      18340.501     -2138.8114      162            108            54             944784         611.53823    
    126000  -1501056.5     -321870.81      18522.557     -2309.6977      162            108            54             944784         617.83574    
    127000  -1499501.8     -322296.55      18622.762     -2226.8758      162            108            54             944784         619.72793    
    128000  -1499317.8     -321504.1       18766.58      -1778.0196      162            108            54             944784         621.16144    
    129000  -1497484.3     -320644.83      19139.01      -2091.4432      162            108            54             944784         626.38583    
    130000  -1497281.2     -322963.78      19003.568     -1679.654       162            108            54             944784         630.73937    
    131000  -1495606.3     -320526.04      19216.208     -1899.4603      162            108            54             944784         635.44299    
    132000  -1494102.4     -319399.36      19146.293     -1978.5489      162            108            54             944784         635.04863    
    133000  -1493109.1     -320185.9       19502.495     -1870.7791      162            108            54             944784         638.6653     
    134000  -1493317.2     -319594.98      19300.262     -1953.6095      162            108            54             944784         639.94573    
    135000  -1490490.7     -318574.63      19517.448     -1595.9143      162            108            54             944784         648.70105    
    136000  -1489404.6     -317325.89      19517.696     -1992.2454      162            108            54             944784         651.57281    
    137000  -1489565.1     -317666.07      19337.605     -2521.8784      162            108            54             944784         651.8995     
    138000  -1488050.4     -318635.08      19948.011     -1473.0745      162            108            54             944784         655.46114    
    139000  -1487566.3     -317685.62      19725.152     -1825.0064      162            108            54             944784         661.42788    
    140000  -1485670.6     -317140.26      20178.75      -2033.1635      162            108            54             944784         660.01839    
    141000  -1484921.1     -317685.75      20144.039     -1569.7395      162            108            54             944784         665.27109    
    142000  -1483282.3     -315307.5       20202.574     -2042.3289      162            108            54             944784         665.70935    
    143000  -1482985.2     -315218.19      20289.646     -1858.0237      162            108            54             944784         669.32421    
    144000  -1481100.7     -316326.24      20596.253     -1488.8967      162            108            54             944784         675.26489    
    145000  -1480511.1     -315889.36      20586.301     -1585.7756      162            108            54             944784         680.54865    
    146000  -1478615.4     -313877.11      20826.539     -1671.5567      162            108            54             944784         682.11205    
    147000  -1478621.6     -313921.56      20944.032     -1777.6247      162            108            54             944784         684.74567    
    148000  -1476759.3     -315557.21      20979.594     -1554.6032      162            108            54             944784         691.75812    
    149000  -1475967.4     -313896.45      21203.187     -1729.6213      162            108            54             944784         692.54594    
    150000  -1474301.9     -312874.91      21272.401     -1588.3531      162            108            54             944784         696.83537    
    151000  -1473378.9     -313629.85      21316.982     -1435.4092      162            108            54             944784         699.75954    
    152000  -1472365.8     -312090.74      21357.494     -1597.3358      162            108            54             944784         703.15882    
    153000  -1471024.6     -312418.54      21410.169     -1678.7088      162            108            54             944784         708.32217    
    154000  -1469719.1     -312048.16      21457.738     -1615.5563      162            108            54             944784         715.09578    
    155000  -1467965.4     -310433.63      21783         -1373.4598      162            108            54             944784         716.51031    
    156000  -1467053.4     -310546.68      21983.522     -1351.0248      162            108            54             944784         716.69099    
    157000  -1466255.3     -311244.52      21670.241     -1379.5611      162            108            54             944784         725.99213    
    158000  -1465692       -310012.12      22189.075     -1507.2855      162            108            54             944784         721.54966    
    159000  -1464835.1     -309989.83      22067.976     -1628.6155      162            108            54             944784         724.94683    
    160000  -1463191.9     -309406.42      22324.517     -1743.6657      162            108            54             944784         726.84035    
    161000  -1463133.5     -310446.65      22255.224     -1332.814       162            108            54             944784         728.91307    
    162000  -1461266.7     -309634.07      22796.907     -1296.4958      162            108            54             944784         736.45861    
    163000  -1460034.1     -309270.71      22459.215     -1178.8092      162            108            54             944784         741.89684    
    164000  -1459336.9     -308442.26      22590.764     -1070.2085      162            108            54             944784         741.4843     
    165000  -1456850.1     -308671.4       22576.763     -1299.0641      162            108            54             944784         749.45759    
    166000  -1456571.7     -307909.04      22926.935     -1080.2881      162            108            54             944784         753.24581    
    167000  -1455903.8     -307341.19      23031.074     -1364.2737      162            108            54             944784         750.84312    
    168000  -1453743.6     -305845.16      23241.929     -1144.7169      162            108            54             944784         757.57521    
    169000  -1452884.6     -306508.6       23214.644     -988.84418      162            108            54             944784         763.2075     
    170000  -1451872.4     -305107.21      23214.534     -1437.8315      162            108            54             944784         766.44897    
    171000  -1452502.3     -305850.73      23362.977     -1293.1376      162            108            54             944784         762.0069     
    172000  -1449967.1     -305553.76      23516.338     -1033.1698      162            108            54             944784         770.70846    
    173000  -1449907.8     -305408.99      23618.072     -907.68698      162            108            54             944784         768.42282    
    174000  -1448130.7     -305734.53      23956.86      -751.36333      162            108            54             944784         775.1867     
    175000  -1446957.3     -303810.32      24058.372     -1128.8427      162            108            54             944784         778.3228     
    176000  -1446757       -302930.03      23927.042     -1344.7141      162            108            54             944784         776.38335    
    177000  -1444060.2     -303616.88      23999.724     -922.79923      162            108            54             944784         788.37745    
    178000  -1444261       -303919.55      24227.258     -1013.4221      162            108            54             944784         788.41872    
    179000  -1442086.1     -302504.71      24158.771     -1353.3698      162            108            54             944784         796.99161    
    180000  -1442487       -302993.88      24230.614     -912.58665      162            108            54             944784         793.87255    
    181000  -1439775.5     -301571         24567.709     -725.8332       162            108            54             944784         802.9805     
    182000  -1439650.4     -302171.6       24567.442     -767.5077       162            108            54             944784         800.8691     
    183000  -1438111.3     -301400.11      24727.442     -1102.9067      162            108            54             944784         807.77377    
    184000  -1437383.9     -300550.09      24771.821     -1218.1571      162            108            54             944784         812.35518    
    185000  -1435078.9     -300553.22      25061.414     -733.41915      162            108            54             944784         813.86105    
    186000  -1434745       -299213.8       25186.393     -978.59753      162            108            54             944784         816.67987    
    187000  -1433828.3     -298761.5       25062.159     -978.89218      162            108            54             944784         815.07311    
    188000  -1431311.8     -297921.03      25444.815     -1111.0177      162            108            54             944784         823.37945    
    189000  -1431259       -298450.22      25261.145     -995.52245      162            108            54             944784         827.24998    
    190000  -1430476       -298239.03      25446.621     -1131.9425      162            108            54             944784         828.05615    
    191000  -1428613.8     -297699.96      25065.105     -874.27921      162            108            54             944784         833.90419    
    192000  -1427396.2     -297383.7       25585.994     -909.0217       162            108            54             944784         839.53089    
    193000  -1425841       -296223.31      26009.343     -1121.9266      162            108            54             944784         841.89433    
    194000  -1426379       -295649.61      25512.394     -933.20861      162            108            54             944784         836.47927    
    195000  -1423715.7     -296267.83      25787.444     -1057.8014      162            108            54             944784         847.87513    
    196000  -1423060.6     -295380.66      25881.46      -770.40352      162            108            54             944784         847.48991    
    197000  -1421532.2     -294802.35      26477.204     -567.76778      162            108            54             944784         855.78773    
    198000  -1422337       -294340.12      26048.396     -1606.1653      162            108            54             944784         851.65189    
    199000  -1419350.6     -293574.93      26213.547     -920.51839      162            108            54             944784         858.32033    
    200000  -1417565.9     -293630.94      26772.517     -487.43997      162            108            54             944784         860.67202    
    201000  -1417649.5     -292154.01      26726.378     -1501.7613      162            108            54             944784         864.71836    
    202000  -1416328.8     -292747.27      26784.639     -1211.8069      162            108            54             944784         872.51164    
    203000  -1414644.1     -292255.97      26988.824     -863.50801      162            108            54             944784         877.06535    
    204000  -1415189.8     -291876.38      27071.618     -934.32046      162            108            54             944784         870.42006    
    205000  -1412568.4     -292096.37      27051.873     -1052.4377      162            108            54             944784         887.23286    
    206000  -1410970.6     -291200.92      27310.048     -783.46776      162            108            54             944784         882.74072    
    207000  -1410402       -290201.39      27120.234     -756.37016      162            108            54             944784         886.46186    
    208000  -1409175.8     -290891.69      27346.798     -1172.8237      162            108            54             944784         895.99838    
    209000  -1409039.6     -290280.78      27414.113     -620.54529      162            108            54             944784         895.4835     
    210000  -1407934.4     -289320.26      27756.821     -1238.0859      162            108            54             944784         892.07343    
    211000  -1406759.2     -290801.89      27628.705     -509.62522      162            108            54             944784         898.2566     
    212000  -1405153.9     -289026.28      27244.88      -492.11949      162            108            54             944784         902.55272    
    213000  -1403214.6     -289240.03      27789.039     -333.03627      162            108            54             944784         912.47994    
    214000  -1403718.3     -289331.03      27819.493     -135.45232      162            108            54             944784         908.06489    
    215000  -1401714.8     -288472.2       28046.443     -758.93142      162            108            54             944784         913.58029    
    216000  -1400473.7     -286994.22      28146.421     -304.09227      162            108            54             944784         919.22311    
    217000  -1401119.2     -287910.17      28138.619     -656.98231      162            108            54             944784         914.7426     
    218000  -1399651.1     -286877.39      28059.311     -855.46301      162            108            54             944784         922.98793    
    219000  -1397548.4     -286818.23      28376.983     -327.48495      162            108            54             944784         926.55843    
    220000  -1396383.9     -285572.61      28355.136     -709.33635      162            108            54             944784         926.28746    
    221000  -1396447.7     -285604.16      28124.95      -606.08452      162            108            54             944784         930.53395    
    222000  -1394259       -284751.17      28537.937     -654.30459      162            108            54             944784         935.37755    
    223000  -1393759.1     -284559.2       28473.025     -935.40282      162            108            54             944784         941.14195    
    224000  -1391720.4     -283499.12      28774.894     -821.78958      162            108            54             944784         942.79481    
    225000  -1389242.6     -282768.06      29018.923     -648.44038      162            108            54             944784         947.88216    
    226000  -1388773.7     -282726.08      29605.118     -759.64974      162            108            54             944784         948.28594    
    227000  -1388203.4     -282133.82      29339.774     -934.94798      162            108            54             944784         951.06367    
    228000  -1386482.5     -281759.93      29186.474     -931.5773       162            108            54             944784         960.54787    
    229000  -1385473.3     -281999.42      29362.137     -747.02429      162            108            54             944784         962.12534    
    230000  -1384097.2     -281996.87      30106.512     -775.26538      162            108            54             944784         962.10543    
    231000  -1384169.3     -281379.46      29780.883     -735.36876      162            108            54             944784         964.96872    
    232000  -1383464.1     -280433.33      29683.85      -698.02627      162            108            54             944784         966.17838    
    233000  -1380866.7     -279712.36      30100.532     -580.92548      162            108            54             944784         974.31259    
    234000  -1381200.4     -279049.72      30010.577     -844.70329      162            108            54             944784         974.72373    
    235000  -1379214       -279227         30127.228     -502.71249      162            108            54             944784         979.84537    
    236000  -1377816.1     -279537.32      29951.381     -767.17725      162            108            54             944784         987.10536    
    237000  -1376565.9     -278431.06      30438.668     -636.2929       162            108            54             944784         981.85141    
    238000  -1376114.2     -278478.19      30399.931     -249.95862      162            108            54             944784         991.74683    
    239000  -1373231.8     -275921.01      30537.743     -855.64587      162            108            54             944784         995.60315    
    240000  -1372810.6     -276606.58      30547.743     -883.95116      162            108            54             944784         994.68592    
    241000  -1372127.6     -276225.98      30940.873     -820.04622      162            108            54             944784         997.34976    
    242000  -1371037.8     -277634.12      30381.908     -151.96628      162            108            54             944784         1007.721     
    243000  -1369417.7     -277551.98      30835.978     -83.088731      162            108            54             944784         1011.2629    
    244000  -1367934       -275527.83      30993.929     -653.06851      162            108            54             944784         1012.7633    
    245000  -1366070.4     -275122.12      31362.885     -44.10258       162            108            54             944784         1017.6908    
    246000  -1366400.1     -274189.36      31035.539     -1042.6507      162            108            54             944784         1017.6567    
    247000  -1366867.6     -275459.29      31461.761     -442.39804      162            108            54             944784         1008.3318    
    248000  -1363785.1     -273103.06      31366.344     -218.57809      162            108            54             944784         1025.4812    
    249000  -1363105.8     -273397.67      31413.435     -936.86422      162            108            54             944784         1024.3376    
    250000  -1361909.9     -271185.68      31312.169     -689.89759      162            108            54             944784         1031.5051    
    251000  -1359564.9     -273031.82      31948.535      41.613923      162            108            54             944784         1037.5291    
    252000  -1358589.3     -273153.82      31690.526     -532.32206      162            108            54             944784         1042.1124    
    253000  -1358728.2     -271138.09      32368.874     -305.07289      162            108            54             944784         1037.7956    
    254000  -1357949.9     -271354         31729.986     -576.02685      162            108            54             944784         1039.4368    
    255000  -1356318       -270009.98      31565.547     -716.67295      162            108            54             944784         1055.3618    
    256000  -1356190.4     -269175.69      31707.339     -615.83168      162            108            54             944784         1046.4242    
    257000  -1354443.8     -271017.13      31749.379     -334.14937      162            108            54             944784         1058.4413    
    258000  -1352535.9     -269710.48      32114.978     -247.11866      162            108            54             944784         1059.5821    
    259000  -1351799.8     -268654.42      32248.661     -682.51748      162            108            54             944784         1062.397     
    260000  -1352488.3     -269367.29      32007.443     -223.69822      162            108            54             944784         1061.9927    
    261000  -1349214.8     -269775.26      32557.318     -60.102995      162            108            54             944784         1073.5179    
    262000  -1350130.6     -268131.21      32988.826     -600.12945      162            108            54             944784         1065.2082    
    263000  -1348289.4     -268229.33      32587.183     -213.96581      162            108            54             944784         1072.1294    
    264000  -1347212.1     -266666.76      32820.971     -237.92644      162            108            54             944784         1074.683     
    265000  -1346384.9     -267796.44      32947.587     -196.47555      162            108            54             944784         1076.3645    
    266000  -1345712.1     -267450.5       33060.84       4.9183292      162            108            54             944784         1081.587     
    267000  -1343839       -267101.29      33349.545     -307.36137      162            108            54             944784         1086.8506    
    268000  -1343314.3     -266953.98      32972.565      54.514378      162            108            54             944784         1090.9282    
    269000  -1342438       -267771         33237.177     -249.02518      162            108            54             944784         1088.6758    
    270000  -1341222.5     -265742.6       33063.432     -13.761414      162            108            54             944784         1098.7837    
    271000  -1339419.9     -265176.35      33199.374     -314.49376      162            108            54             944784         1102.0223    
    272000  -1339859.3     -266930.75      33590.076     -230.36465      162            108            54             944784         1102.1465    
    273000  -1338100       -266507.16      33656.369      654.21587      162            108            54             944784         1103.2963    
    274000  -1335480.1     -265446.4       34103.6       -311.12607      162            108            54             944784         1115.2955    
    275000  -1337544.7     -265215.13      33667.623     -94.731238      162            108            54             944784         1111.769     
    276000  -1335214.7     -265528.72      33858.242      416.5635       162            108            54             944784         1114.8732    
    277000  -1332739.4     -265198.25      33797.11       233.51666      162            108            54             944784         1128.6336    
    278000  -1333944.3     -266102.74      33750.098      445.61729      162            108            54             944784         1125.9339    
    279000  -1332638.6     -265432.19      33978.662     -33.901026      162            108            54             944784         1126.6564    
    280000  -1331299       -264700.87      34060.563      32.28858       162            108            54             944784         1133.8259    
    281000  -1328800       -263277.11      34483.911      546.40725      162            108            54             944784         1138.3719    
    282000  -1328361.6     -262958.46      34529.151     -162.6735       162            108            54             944784         1142.8847    
    283000  -1328824.3     -262882.52      34705.699      175.62418      162            108            54             944784         1138.3276    
    284000  -1326970.5     -262940.21      34755.614      442.38154      162            108            54             944784         1139.3488    
    285000  -1325699.2     -263373.14      35171.934     -231.51812      162            108            54             944784         1148.4648    
    286000  -1324626.9     -262542.07      34952.357      398.17077      162            108            54             944784         1156.222     
    287000  -1323840.3     -262021.18      35448.852      294.67092      162            108            54             944784         1154.3793    
    288000  -1322251.6     -262846.96      35204.296      421.9006       162            108            54             944784         1164.815     
    289000  -1322572.6     -262292.65      35667.544      375.48301      162            108            54             944784         1157.8891    
    290000  -1320462.3     -262357.17      35369.753      431.49462      162            108            54             944784         1165.3645    
    291000  -1318914.5     -260654.54      35540.876      840.12254      162            108            54             944784         1170.5761    
    292000  -1321657.6     -262505.35      34831.892      467.13307      162            108            54             944784         1168.5568    
    293000  -1319037.4     -261048.16      35203.885      499.19275      162            108            54             944784         1174.541     
    294000  -1316700.8     -262452.77      35169.946      380.69439      162            108            54             944784         1183.1634    
    295000  -1317353.7     -261473.81      35097.057      823.79582      162            108            54             944784         1183.4189    
    296000  -1316130.5     -261541.12      35710.943      917.683        162            108            54             944784         1186.5884    
    297000  -1314153.1     -260364.29      36168.916      449.1252       162            108            54             944784         1189.0132    
    298000  -1312309.3     -260756.53      35935.111      1379.6037      162            108            54             944784         1199.013     
    299000  -1311788.7     -259286.8       36188.392      202.98628      162            108            54             944784         1200.9923    
    300000  -1311329.5     -261245.71      36028.218      891.95061      162            108            54             944784         1198.652     
    301000  -1309850.7     -258787.66      36372.671      810.03676      162            108            54             944784         1206.912     
    302000  -1308523.1     -257453.71      36285.949      596.40281      162            108            54             944784         1211.786     
    303000  -1307681.6     -258284.19      36921.966      1213.9968      162            108            54             944784         1206.8351    
    304000  -1309170.6     -259172.2       36537.933      938.16671      162            108            54             944784         1204.7182    
    305000  -1306791.2     -260937.66      36752.601      930.94132      162            108            54             944784         1219.1035    
    306000  -1306347.5     -260017.7       36803.755      920.09336      162            108            54             944784         1215.3227    
    307000  -1304691.3     -259110.1       36858.919      1072.9369      162            108            54             944784         1225.3251    
    308000  -1302540.1     -258357.57      37671.599      948.83956      162            108            54             944784         1228.7793    
    309000  -1303201.4     -260020.68      37308.16       945.18049      162            108            54             944784         1230.4408    
    310000  -1301409.4     -257597.9       37746.305      1147.6015      162            108            54             944784         1230.6082    
    311000  -1301294.2     -257444.78      37408.782      1029.3844      162            108            54             944784         1235.131     
    312000  -1299091.3     -257208.22      37886.17       1019.2132      162            108            54             944784         1235.1516    
    313000  -1299149.4     -258023.86      37864.449      1351.4486      162            108            54             944784         1244.5116    
    314000  -1297459.2     -258153.92      37804.919      1399.439       162            108            54             944784         1246.8706    
    315000  -1296820.1     -257956.57      37683.349      1729.0271      162            108            54             944784         1250.409     
    316000  -1294558.7     -257390.37      37959.44       1333.2926      162            108            54             944784         1257.5532    
    317000  -1295192.8     -257460.96      37952.581      1338.6196      162            108            54             944784         1252.3258    
    318000  -1294048.6     -256420.96      38265.53       1590.9146      162            108            54             944784         1259.2406    
    319000  -1292358.2     -255724.03      38532.518      989.63003      162            108            54             944784         1267.3291    
    320000  -1292168.2     -256119.4       37973.991      1422.0342      162            108            54             944784         1268.7772    
    321000  -1292737       -256211.67      38024.755      1042.8323      162            108            54             944784         1268.7144    
    322000  -1290381.5     -255415.7       38731.632      1776.2016      162            108            54             944784         1273.9219    
    323000  -1289344.4     -255397.38      38744.567      1581.3756      162            108            54             944784         1272.8045    
    324000  -1287696.5     -255524.77      38995.255      1351.8171      162            108            54             944784         1281.7126    
    325000  -1287698       -255008.54      38770.224      1375.666       162            108            54             944784         1278.3144    
    326000  -1284219.4     -254628.45      39396.788      1014.9469      162            108            54             944784         1290.3664    
    327000  -1285262.3     -254873.02      39383.828      2244.1786      162            108            54             944784         1289.4998    
    328000  -1285028.9     -255040.35      39258.55       1647.6913      162            108            54             944784         1295.6732    
    329000  -1281846.8     -254218.67      39334.824      1407.6817      162            108            54             944784         1303.9443    
    330000  -1282735.2     -254557.45      39312.318      2019.1532      162            108            54             944784         1306.1449    
Loop time of 40469 on 2 procs for 300000 steps with 50400 atoms

Performance: 0.640 ns/day, 37.471 hours/ns, 7.413 timesteps/s, 373.620 katom-step/s
99.7% CPU use with 2 MPI tasks x no OpenMP threads

MPI task timing breakdown:
Section |  min time  |  avg time  |  max time  |%varavg| %total
---------------------------------------------------------------
Pair    | 31426      | 31971      | 32517      | 305.0 | 79.00
Bond    | 489.55     | 497.45     | 505.34     |  35.4 |  1.23
Kspace  | 5501.2     | 6040.6     | 6579.9     | 693.9 | 14.93
Neigh   | 1364.4     | 1364.5     | 1364.5     |   0.2 |  3.37
Comm    | 150.88     | 164.89     | 178.9      | 109.1 |  0.41
Output  | 245.76     | 245.76     | 245.76     |   0.0 |  0.61
Modify  | 133.84     | 134.02     | 134.21     |   1.6 |  0.33
Other   |            | 50.42      |            |       |  0.12

Nlocal:          25200 ave       25240 max       25160 min
Histogram: 1 0 0 0 0 0 0 0 0 1
Nghost:          35864 ave       35894 max       35834 min
Histogram: 1 0 0 0 0 0 0 0 0 1
Neighs:    6.17631e+06 ave 6.19615e+06 max 6.15648e+06 min
Histogram: 1 0 0 0 0 0 0 0 0 1

Total # of neighbors = 12352628
Ave neighs/atom = 245.09183
Ave special neighs/atom = 2.4
Neighbor list builds = 9326
Dangerous builds = 0
unfix nvt

fix nvt all nvt temp 1300.0 1300.0 $(100*dt)
fix nvt all nvt temp 1300.0 1300.0 100
run 500000 #0.5 ns
PPPM initialization ...
  using 12-bit tables for long-range coulomb (../kspace.cpp:342)
  G vector (1/distance) = 0.24196708
  grid = 72 50 30
  stencil order = 5
  estimated absolute RMS force accuracy = 0.034752741
  estimated relative force accuracy = 0.00010465685
  using double precision KISS FFT
  3d grid and FFT values/proc = 83435 54000
Generated 0 of 3 mixed pair_coeff terms from geometric mixing rule
Per MPI rank memory allocation (min/avg/max) = 89.29 | 90.45 | 91.6 Mbytes
   Step         TotEng         E_coul         E_bond         Press            Lx             Ly             Lz           Volume          Temp     
    330000  -1282735.2     -254557.45      39312.318      2019.1532      162            108            54             944784         1306.1449    
    331000  -1282861.1     -254909.98      39388.551      1292.3685      162            108            54             944784         1295.5954    
    332000  -1281145.5     -255036         39369.847      1774.8867      162            108            54             944784         1304.1715    
    333000  -1282271.5     -254650.41      39037.818      2277.3413      162            108            54             944784         1301.5669    
    334000  -1283533.1     -254791.67      39274.074      1416.1276      162            108            54             944784         1291.4786    
    335000  -1283602.1     -255947.15      39525.033      1876.9807      162            108            54             944784         1296.54      
    336000  -1283433.4     -254119.84      39042.076      1368.3284      162            108            54             944784         1296.5118    
    337000  -1283043.5     -254693.22      39448.72       1637.6319      162            108            54             944784         1297.8419    
    338000  -1283691.2     -254655.15      39386.609      1207.8449      162            108            54             944784         1291.047     
    339000  -1282534.3     -253293.87      39455.986      1439.3849      162            108            54             944784         1298.7765    
    340000  -1282135.3     -255108.16      39139.262      1475.6515      162            108            54             944784         1300.8204    
    341000  -1284215.2     -255423.31      39156.296      1195.1838      162            108            54             944784         1298.1169    
    342000  -1283313.3     -253945.81      39480.184      2104.7647      162            108            54             944784         1293.5417    
    343000  -1282685.8     -254770.7       39116.146      1774.712       162            108            54             944784         1296.9577    
    344000  -1281778.1     -253090.15      39151.436      1693.3011      162            108            54             944784         1308.3063    
    345000  -1282056       -255370.14      39251.7        1624.475       162            108            54             944784         1304.7659    
    346000  -1284568.8     -254527.01      39103.439      1801.204       162            108            54             944784         1295.7558    
    347000  -1282869.7     -255516.47      39502.497      1875.0272      162            108            54             944784         1300.3705    
    348000  -1282804.3     -256134.18      39450.306      1728.7326      162            108            54             944784         1299.6747    
    349000  -1282287.8     -254863.23      39626.945      1562.7787      162            108            54             944784         1302.8193    
    350000  -1281936.4     -254586.38      39846.434      1718.3762      162            108            54             944784         1298.0324    
    351000  -1282570.1     -253477.43      39118.984      1259.5142      162            108            54             944784         1303.0806    
    352000  -1284075.2     -253302.07      39137.187      1234.4754      162            108            54             944784         1295.2753    
    353000  -1282835.5     -253672.08      39316.535      1733.1656      162            108            54             944784         1297.1864    
    354000  -1282054.8     -254494.64      39792.859      1405.9055      162            108            54             944784         1300.2038    
    355000  -1284022.6     -254443.42      39268.117      1720.3147      162            108            54             944784         1290.13      
    356000  -1283085.1     -253756.75      39865.83       1278.3335      162            108            54             944784         1296.7305    
    357000  -1282954.2     -254333.08      39403.18       1446.0122      162            108            54             944784         1297.5473    
    358000  -1281859.8     -252616.77      38617.993      1279.7702      162            108            54             944784         1302.2352    
    359000  -1279947.6     -252623.47      39626.952      1713.2598      162            108            54             944784         1308.7817    
    360000  -1281947.1     -253336.94      39726.02       1559.6599      162            108            54             944784         1300.4161    
    361000  -1282379.6     -255193.16      39929.034      1640.8268      162            108            54             944784         1298.5349    
    362000  -1283093.7     -253706.76      40001.152      1368.0702      162            108            54             944784         1295.696     
    363000  -1284416.6     -253596.8       39466.946      1179.2553      162            108            54             944784         1292.2333    
    364000  -1282195.3     -253626.07      39769.114      1007.8912      162            108            54             944784         1299.4751    
    365000  -1282918.2     -254837.19      39150.225      2032.0144      162            108            54             944784         1299.1344    
    366000  -1283717       -254885.02      39563.734      1710.8724      162            108            54             944784         1300.68      
    367000  -1282020.5     -255093.68      39076.817      1717.274       162            108            54             944784         1305.7955    
    368000  -1282187.1     -254383.27      39406.488      1128.9283      162            108            54             944784         1296.8969    
    369000  -1282624.7     -254540.78      39462.911      2222.1315      162            108            54             944784         1299.4519    
    370000  -1282415.7     -254986.27      39461.112      1919.9184      162            108            54             944784         1299.2951    
    371000  -1283948.9     -254301.04      39078.906      1406.9803      162            108            54             944784         1293.3402    
    372000  -1283299.6     -254372.68      39900.399      1663.3442      162            108            54             944784         1292.8809    
    373000  -1282083.1     -254949.99      39503.951      1893.2993      162            108            54             944784         1294.201     
    374000  -1282670.6     -254401.8       39261.3        1380.2579      162            108            54             944784         1299.8504    
    375000  -1282084.3     -252927.24      39352.358      1574.3268      162            108            54             944784         1303.1798    
    376000  -1281310.8     -254156.71      39242.841      1391.8767      162            108            54             944784         1307.6129    
    377000  -1283745.5     -255392.78      39348.627      1344.7381      162            108            54             944784         1297.8601    
    378000  -1283096.7     -254342.25      38935.401      2134.4482      162            108            54             944784         1303.1025    
    379000  -1280692.7     -253295.1       39327.673      1490.408       162            108            54             944784         1303.501     
    380000  -1282851.4     -255079.93      38960.187      2142.9512      162            108            54             944784         1296.0804    
    381000  -1283807.9     -254239.76      39479.35       1382.3745      162            108            54             944784         1295.4423    
    382000  -1281390.9     -254877.07      39086.137      1205.6379      162            108            54             944784         1307.2085    
    383000  -1283383.2     -254404.8       39038.512      1293.0284      162            108            54             944784         1301.3027    
    384000  -1283187.1     -254866.78      39262.928      1721.9634      162            108            54             944784         1297.518     
    385000  -1281603.7     -253736.3       39002.779      1278.5714      162            108            54             944784         1303.7534    
    386000  -1282111.2     -254356.33      39286.909      1413.831       162            108            54             944784         1300.8024    
    387000  -1285532.4     -255965.64      39162.429      1896.3098      162            108            54             944784         1287.299     
    388000  -1282263.9     -253686.97      39549.323      1423.0045      162            108            54             944784         1300.1143    
    389000  -1282928.1     -254726.49      38881.917      1914.5338      162            108            54             944784         1300.1858    
    390000  -1282899.6     -254146.97      39346.85       1605.2476      162            108            54             944784         1298.9514    
    391000  -1281293.4     -254537.56      39288.267      1597.2786      162            108            54             944784         1299.8054    
    392000  -1283552.7     -254562.52      38722.994      1549.4063      162            108            54             944784         1304.4108    
    393000  -1282431.3     -254157.9       38755.212      1366.0809      162            108            54             944784         1299.4284    
    394000  -1282638.7     -253545.99      39485.883      1743.0819      162            108            54             944784         1292.6761    
    395000  -1282887.9     -253298.06      38714.153      1738.4453      162            108            54             944784         1295.0677    
    396000  -1281698.3     -254383.84      39164.595      1549.2411      162            108            54             944784         1305.3845    
    397000  -1284009.5     -254125.99      39126.604      1432.2355      162            108            54             944784         1293.4639    
    398000  -1282493.6     -254853.67      39163.701      2061.9803      162            108            54             944784         1296.9048    
    399000  -1284101.9     -254221.69      38514.969      1490.6716      162            108            54             944784         1294.2816    
    400000  -1281409.6     -253540.31      39371.944      1616.3209      162            108            54             944784         1298.6048    
    401000  -1282654.7     -254926.42      38784.945      1861.824       162            108            54             944784         1304.9061    
    402000  -1282577       -254265.25      38884.202      1737.1586      162            108            54             944784         1298.6513    
    403000  -1282714.5     -253599.69      39060.868      1836.7041      162            108            54             944784         1297.555     
    404000  -1282968.9     -255136.28      39265.564      1229.4261      162            108            54             944784         1301.418     
    405000  -1281556.9     -253969.67      39533.018      2490.1981      162            108            54             944784         1303.436     
    406000  -1282737.1     -254234.56      39183.201      1553.8559      162            108            54             944784         1296.488     
    407000  -1283281.2     -255006.48      39329.274      1750.7082      162            108            54             944784         1299.8895    
    408000  -1281989.5     -254451.91      39756.814      1936.5184      162            108            54             944784         1296.2528    
    409000  -1281149       -255017.18      39722.252      1854.6936      162            108            54             944784         1306.632     
    410000  -1284460.2     -253558.38      39015.251      1208.3728      162            108            54             944784         1294.9736    
    411000  -1280846.9     -253920.19      39399.413      1007.7821      162            108            54             944784         1307.2317    
    412000  -1281028       -254586.67      39185.994      1749.2993      162            108            54             944784         1303.9877    
    413000  -1282823.5     -255519.11      39179.878      1009.6636      162            108            54             944784         1303.5151    
    414000  -1282151.9     -255480.95      39086.521      2130.9227      162            108            54             944784         1304.194     
    415000  -1282298.1     -254303.74      38920.933      1559.7934      162            108            54             944784         1303.3182    
    416000  -1284275.5     -255470.9       38731.867      1465.701       162            108            54             944784         1299.2198    
    417000  -1282041.8     -253742.71      39708.703      1227.3152      162            108            54             944784         1302.38      
    418000  -1282717.2     -253598.4       38855.779      1514.0012      162            108            54             944784         1303.4684    
    419000  -1281711.9     -253917.44      39181.991      1348.065       162            108            54             944784         1305.6149    
    420000  -1283816.8     -254373.21      39526.766      1323.406       162            108            54             944784         1295.163     
    421000  -1282974.4     -255257.47      38934.832      1707.4492      162            108            54             944784         1299.7526    
    422000  -1281995.2     -254695.43      39342.507      1885.4527      162            108            54             944784         1302.8534    
    423000  -1281426       -254240.16      39150.833      2171.5648      162            108            54             944784         1303.2081    
    424000  -1283240.8     -254523.71      39744.102      1730.5215      162            108            54             944784         1295.9583    
    425000  -1282761.7     -254611.29      39397.411      1557.893       162            108            54             944784         1297.4202    
    426000  -1283589.6     -254927.94      39290.477      1833.07        162            108            54             944784         1297.7219    
    427000  -1282335.6     -255252.1       39807.312      1193.8485      162            108            54             944784         1298.6184    
    428000  -1282967.5     -254772.19      39476.377      1652.7513      162            108            54             944784         1294.3239    
    429000  -1280711       -255730.97      39691.33       2224.9586      162            108            54             944784         1305.1298    
    430000  -1285271.1     -254871.26      39206.584      1128.3174      162            108            54             944784         1289.1448    
    431000  -1280813.7     -253482.6       39304.717      1855.0191      162            108            54             944784         1305.5398    
    432000  -1282287.5     -254294.38      39279.555      1465.7681      162            108            54             944784         1301.2842    
    433000  -1283151.9     -254159.71      39307.561      1596.7532      162            108            54             944784         1293.9542    
    434000  -1283243.8     -255516.45      39189.446      1483.2334      162            108            54             944784         1299.6999    
    435000  -1283569.5     -255404.16      39074.388      2022.2437      162            108            54             944784         1298.779     
    436000  -1282295.3     -254245.23      38877.547      1292.7466      162            108            54             944784         1306.6408    
    437000  -1280848.8     -254235.63      40391.636      1583.7592      162            108            54             944784         1301.9913    
    438000  -1282248.2     -253978.72      39468.6        1274.5723      162            108            54             944784         1298.5631    
    439000  -1282873.5     -254338.99      39571.804      2115.9351      162            108            54             944784         1297.4596    
    440000  -1282463       -255771.89      39698.842      1551.4296      162            108            54             944784         1299.7954    
    441000  -1282215.5     -254703.35      39257.901      1548.2362      162            108            54             944784         1302.8038    
    442000  -1283529.3     -254495.17      39839.754      1276.3853      162            108            54             944784         1298.9406    
    443000  -1280274.6     -253384.98      39481.284      1705.1995      162            108            54             944784         1310.3707    
    444000  -1283056.6     -253738.06      39697.763      1396.1245      162            108            54             944784         1295.6382    
    445000  -1281682.4     -254286.74      39604.623      2037.9986      162            108            54             944784         1305.089     
    446000  -1283020.5     -254248.43      39633.311      1370.2022      162            108            54             944784         1292.9481    
    447000  -1280838.2     -255078.83      39705.757      1662.8909      162            108            54             944784         1310.4984    
    448000  -1283061.5     -254898.2       39556.12       1382.4827      162            108            54             944784         1293.3884    
    449000  -1282357.9     -253641.8       39537.59       1420.2175      162            108            54             944784         1300.1199    
    450000  -1282578.2     -254065.77      40091.939      1496.908       162            108            54             944784         1292.6638    
    451000  -1282869.4     -254548.52      39489.826      1589.8931      162            108            54             944784         1296.6794    
    452000  -1281087.8     -254747.21      39651.175      2215.3849      162            108            54             944784         1306.0901    
    453000  -1283630.5     -254123.71      39083.348      1155.2812      162            108            54             944784         1297.8618    
    454000  -1282334.9     -254212.14      39373.214      1786.3176      162            108            54             944784         1296.8335    
    455000  -1283904       -253637.62      38762.021      1241.3881      162            108            54             944784         1301.7446    
    456000  -1283422.7     -254676.22      39532.072      1251.9187      162            108            54             944784         1296.6057    
    457000  -1284174.8     -253903.08      39091.149      2133.5263      162            108            54             944784         1287.0545    
    458000  -1280780.7     -252299.47      39775.29       1444.3636      162            108            54             944784         1304.7373    
    459000  -1283608.2     -253701.62      39355.557      1036.7522      162            108            54             944784         1292.956     
    460000  -1282529.2     -254659.02      39979.309      1372.9339      162            108            54             944784         1302.3885    
    461000  -1282091.6     -254181.36      39321.008      1692.4147      162            108            54             944784         1301.5514    
    462000  -1281639.7     -254470.66      39417.252      1769.3982      162            108            54             944784         1304.6228    
    463000  -1281527.2     -253225.58      39241.377      1457.9909      162            108            54             944784         1302.4623    
    464000  -1283240.8     -254794.24      39739.468      1497.5802      162            108            54             944784         1293.9052    
    465000  -1282462.4     -253379.3       39458.932      1659.1222      162            108            54             944784         1301.5099    
    466000  -1283726.7     -255934.35      39155.273      1497.9362      162            108            54             944784         1295.1297    
    467000  -1282070.5     -253161.83      39386.288      1451.0249      162            108            54             944784         1299.8482    
    468000  -1282592.4     -254473.82      39859.027      1703.9126      162            108            54             944784         1295.1437    
    469000  -1282342       -253921.83      39634.029      1414.9214      162            108            54             944784         1298.7183    
    470000  -1282955.5     -254964.76      39211.203      1690.1856      162            108            54             944784         1303.2478    
    471000  -1283090.9     -254389.61      39000.303      1283.2115      162            108            54             944784         1293.3727    
    472000  -1282105.1     -253629.37      39280.267      1056.0695      162            108            54             944784         1302.3529    
    473000  -1282589.6     -255069.41      39518.447      1526.4517      162            108            54             944784         1301.4837    
    474000  -1284322.3     -254636.33      39217.525      1634.0432      162            108            54             944784         1297.5841    
    475000  -1282349.3     -254211.72      39837.963      1122.4632      162            108            54             944784         1299.1298    
    476000  -1282806.7     -254314.62      39912.828      1531.8771      162            108            54             944784         1297.8187    
    477000  -1283225.4     -254589.07      39684.773      1590.3147      162            108            54             944784         1295.594     
    478000  -1283019.2     -252996.01      39585.145      1270.7698      162            108            54             944784         1296.0591    
    479000  -1282396.5     -255207.38      39469.222      1725.579       162            108            54             944784         1303.0114    
    480000  -1283556.3     -256352.45      39382.619      1582.3924      162            108            54             944784         1297.3672    
    481000  -1282740.3     -254345.43      39493.503      2067.6153      162            108            54             944784         1303.3171    
    482000  -1283127.1     -253998.97      39106.218      1206.3853      162            108            54             944784         1297.9827    
    483000  -1282467.4     -255096.9       39306.561      1868.6337      162            108            54             944784         1300.8483    
    484000  -1282770.2     -254776.27      39469.249      1565.8134      162            108            54             944784         1297.7228    
    485000  -1282998.7     -255349.73      39395.602      1519.2167      162            108            54             944784         1298.6753    
    486000  -1282370.8     -254107.61      39869.503      1548.3997      162            108            54             944784         1300.0213    
    487000  -1281683.5     -255129.98      38953.199      1830.5237      162            108            54             944784         1308.6122    
    488000  -1282089       -254689.85      39717.711      1283.2914      162            108            54             944784         1299.2775    
    489000  -1282098.8     -254194.16      39563.325      1952.5166      162            108            54             944784         1306.7273    
    490000  -1282760.8     -254228.88      39699.105      1506.5822      162            108            54             944784         1298.3838    
    491000  -1281828       -253745.17      39240.276      1470.5259      162            108            54             944784         1304.1243    
    492000  -1282490.6     -253955.01      39256.63       1784.4332      162            108            54             944784         1296.6558    
    493000  -1281509.3     -253842.89      39739.969      2033.0467      162            108            54             944784         1294.9043    
    494000  -1283290.3     -255492.03      39555.003      1519.1258      162            108            54             944784         1295.991     
    495000  -1278961.8     -253912.32      40153.608      1646.9109      162            108            54             944784         1311.1465    
    496000  -1282324.6     -254804.87      39552.662      1586.0305      162            108            54             944784         1303.3096    
    497000  -1281689.3     -255112.13      39917.252      1238.8702      162            108            54             944784         1306.6738    
    498000  -1284600.5     -256165.35      39575.822      2080.2108      162            108            54             944784         1289.0976    
    499000  -1282653.3     -255444.52      39204.457      1704.96        162            108            54             944784         1303.4072    
    500000  -1283643.1     -254768.86      39840.193      1752.9585      162            108            54             944784         1298.888     
    501000  -1281877       -254526.53      40030.164      1494.2505      162            108            54             944784         1300.7096    
    502000  -1282955.5     -254111.91      39471.906      1174.4888      162            108            54             944784         1298.7744    
    503000  -1281932.4     -253443.88      39481.944      2061.0816      162            108            54             944784         1303.1071    
    504000  -1281719.3     -253783.68      39272.642      1800.5682      162            108            54             944784         1301.7779    
    505000  -1280663.8     -253089.71      39391.069      1783.1046      162            108            54             944784         1306.3226    
    506000  -1280616.4     -255131.31      39653.429      1285.0253      162            108            54             944784         1306.7631    
    507000  -1282661.2     -255107.69      39520.741      2044.8074      162            108            54             944784         1301.3535    
    508000  -1283244.7     -253821.08      39653.464      1380.4611      162            108            54             944784         1292.7182    
    509000  -1282336.5     -253039.93      39734.232      857.074        162            108            54             944784         1294.032     
    510000  -1284785.9     -255342.47      39080.766      1591.5642      162            108            54             944784         1290.558     
    511000  -1282200.6     -253911.24      39782.388      1324.9428      162            108            54             944784         1297.7804    
    512000  -1282680.1     -255311.15      39260.095      1336.3899      162            108            54             944784         1306.2327    
    513000  -1281607.3     -253803.22      39463.327      1665.4532      162            108            54             944784         1304.9062    
    514000  -1282567.5     -254950.72      39398.575      2140.9457      162            108            54             944784         1297.7851    
    515000  -1283351.6     -255232.18      39533.558      1395.1553      162            108            54             944784         1294.9688    
    516000  -1281648.7     -254366.7       39556.344      1330.5064      162            108            54             944784         1299.6142    
    517000  -1280819.1     -254248.11      40070.191      1696.5216      162            108            54             944784         1303.8342    
    518000  -1282982.7     -255877.92      39334.965      2011.8373      162            108            54             944784         1302.2625    
    519000  -1281355.8     -254582.15      39013.403      1416.3453      162            108            54             944784         1305.7537    
    520000  -1282691.9     -254363.37      39121.729      1861.3812      162            108            54             944784         1300.1294    
    521000  -1282153.7     -252522.47      39590.805      1573.7198      162            108            54             944784         1301.8975    
    522000  -1282005.6     -254300.95      39493.688      1372.1111      162            108            54             944784         1299.4181    
    523000  -1282488.6     -254156.48      39157.538      1646.2225      162            108            54             944784         1297.3189    
    524000  -1282432.1     -254140.04      39397.239      1843.1228      162            108            54             944784         1299.1654    
    525000  -1283704.9     -256180.33      38928.688      1366.1212      162            108            54             944784         1299.4513    
    526000  -1283904.2     -254165.69      38939.032      1578.5043      162            108            54             944784         1298.0897    
    527000  -1282519.3     -253942.41      39710.86       1284.9525      162            108            54             944784         1303.1038    
    528000  -1281229.9     -255448.26      39510.458      1752.6923      162            108            54             944784         1305.8915    
    529000  -1284495.7     -256078.83      38794.614      1828.8958      162            108            54             944784         1297.4665    
    530000  -1281180.2     -253838.52      39368.781      1853.8732      162            108            54             944784         1306.6087    
    531000  -1282227.7     -254568.58      39250.399      1802.5249      162            108            54             944784         1300.2103    
    532000  -1283211.4     -254335.01      39373.988      1638.3113      162            108            54             944784         1298.5586    
    533000  -1281623.3     -252577.33      39502.464      1288.7665      162            108            54             944784         1298.8056    
    534000  -1282125.5     -252772.55      39841.715      1868.4715      162            108            54             944784         1296.5899    
    535000  -1284309.5     -253908.16      39113.237      1257.4622      162            108            54             944784         1290.9432    
    536000  -1283548.6     -253395.02      39107.114      2043.261       162            108            54             944784         1297.7094    
    537000  -1282299.5     -253641.6       39402.726      1354.7083      162            108            54             944784         1297.8704    
    538000  -1282950.3     -254977.68      39447.09       1728.4069      162            108            54             944784         1296.8931    
    539000  -1282105.1     -253665.56      39765.495      1666.5692      162            108            54             944784         1304.3028    
    540000  -1284031.6     -253368.65      39020.401      1494.5708      162            108            54             944784         1290.8576    
    541000  -1283825.1     -254240.87      39074.206      1513.6244      162            108            54             944784         1294.1406    
    542000  -1282021.6     -253856         39725.023      1173.4261      162            108            54             944784         1302.8995    
    543000  -1283985.5     -255288.89      38841.028      1889.5661      162            108            54             944784         1302.155     
    544000  -1282871.5     -253999.4       39128.978      1618.1686      162            108            54             944784         1301.3005    
    545000  -1282397.2     -254957.71      39018.372      1842.2257      162            108            54             944784         1300.1694    
    546000  -1282564.5     -254856.48      38918.886      1749.4439      162            108            54             944784         1303.7831    
    547000  -1281427.2     -253661.68      39655.043      1662.4046      162            108            54             944784         1305.4943    
    548000  -1280463.8     -253195.76      39470.965      1733.6401      162            108            54             944784         1309.2051    
    549000  -1284016.3     -255027.47      39045.429      1638.2451      162            108            54             944784         1299.7763    
    550000  -1281521.8     -254553.26      39387.717      1302.8123      162            108            54             944784         1304.1198    
    551000  -1280591       -254122.58      39659.088      1734.3062      162            108            54             944784         1305.3041    
    552000  -1284316.5     -254222.6       38802.509      1800.8923      162            108            54             944784         1292.5884    
    553000  -1282456.8     -254695.83      39082.077      1011.3077      162            108            54             944784         1303.8475    
    554000  -1283808       -254005.79      39298.239      1706.2839      162            108            54             944784         1298.7953    
    555000  -1283607.1     -252710.73      39319.976      1755.2611      162            108            54             944784         1291.1742    
    556000  -1283229.2     -254088.43      39183.874      1079.7568      162            108            54             944784         1297.0885    
    557000  -1283106.9     -253447.42      39414.458      1700.1802      162            108            54             944784         1295.4351    
    558000  -1283238.4     -254015.51      38973.804      1400.6951      162            108            54             944784         1295.5722    
    559000  -1280650.8     -253639.42      39049.533      1674.71        162            108            54             944784         1304.7597    
    560000  -1282840.1     -253058.07      38436.933      1411.6619      162            108            54             944784         1302.0457    
    561000  -1283162       -253843.87      38799.498      1906.4449      162            108            54             944784         1303.3514    
    562000  -1283783.9     -255570.1       39101.772      1716.5561      162            108            54             944784         1293.8955    
    563000  -1282640.2     -254450.11      39477.384      1714.6151      162            108            54             944784         1301.4179    
    564000  -1282005.2     -253421.99      39413.843      1334.7885      162            108            54             944784         1302.3879    
    565000  -1282236       -255276.48      39081.681      1040.8412      162            108            54             944784         1307.7456    
    566000  -1281743.5     -254137.12      39393.572      2065.6458      162            108            54             944784         1303.3581    
    567000  -1281635.6     -255742.58      39761.457      1385.9533      162            108            54             944784         1304.5331    
    568000  -1281152.7     -255602.38      39743.355      1749.0748      162            108            54             944784         1305.0688    
    569000  -1281442.7     -252579.56      39004.632      1260.1729      162            108            54             944784         1301.4744    
    570000  -1281989.9     -254355.35      39348.564      1554.9737      162            108            54             944784         1298.8856    
    571000  -1282322.2     -254708.35      39016.705      1496.9634      162            108            54             944784         1306.0369    
    572000  -1280772       -253906.89      39780.661      1935.1955      162            108            54             944784         1301.703     
    573000  -1284086       -254618.34      39229.125      1763.5873      162            108            54             944784         1294.6421    
    574000  -1281219.5     -253741.32      39072.323      1784.6134      162            108            54             944784         1302.5858    
    575000  -1283181.2     -254033.72      39181.07       1630.14        162            108            54             944784         1298.7205    
    576000  -1281671.3     -254138.91      39577.92       1682.7807      162            108            54             944784         1298.9647    
    577000  -1283213.8     -253543.04      39102.83       1120.2544      162            108            54             944784         1298.704     
    578000  -1281572.7     -254330.34      39617.141      1735.5382      162            108            54             944784         1303.704     
    579000  -1284550.7     -253968.33      39480.245      1536.9236      162            108            54             944784         1290.7468    
    580000  -1282949.7     -253825.23      39290.555      1693.2868      162            108            54             944784         1302.9376    
    581000  -1281109.3     -255601.12      39510.995      1938.5961      162            108            54             944784         1306.4605    
    582000  -1283321.9     -254525.54      39139.947      1114.9713      162            108            54             944784         1295.4458    
    583000  -1281043.6     -253598.78      39550.183      1205.9227      162            108            54             944784         1304.4982    
    584000  -1281489.4     -254516.56      39897.79       1899.9567      162            108            54             944784         1300.7152    
    585000  -1281890.3     -254843.25      39393.469      1555.7972      162            108            54             944784         1308.1657    
    586000  -1283081.2     -253925.63      39156.307      1329.5624      162            108            54             944784         1301.7619    
    587000  -1282811.3     -254554.49      39443.432      1019.6187      162            108            54             944784         1300.873     
    588000  -1282257.3     -254365.85      39369.696      1781.2336      162            108            54             944784         1305.1059    
    589000  -1280556.8     -254937.53      39484.042      1838.0107      162            108            54             944784         1310.8878    
    590000  -1282415       -255483.18      39457.51       2213.5689      162            108            54             944784         1300.5533    
    591000  -1281915.1     -254988.47      39816.469      1743.36        162            108            54             944784         1300.3842    
    592000  -1280971.4     -254388         39496.802      1770.0055      162            108            54             944784         1307.5921    
    593000  -1283368.2     -254550.14      39432.016      1874.7206      162            108            54             944784         1293.9791    
    594000  -1282374.1     -253435.38      39448.534      1011.198       162            108            54             944784         1298.2793    
    595000  -1282471.3     -253399.36      39659.453      1576.7718      162            108            54             944784         1294.7143    
    596000  -1282587.9     -252826.04      39463.88       1362.9853      162            108            54             944784         1298.9121    
    597000  -1282864.9     -253990.27      39174.053      1622.0708      162            108            54             944784         1298.9103    
    598000  -1283554.7     -253248.18      39034.171      1962.3189      162            108            54             944784         1302.5848    
    599000  -1281424.4     -253146.1       39464.727      1168.9576      162            108            54             944784         1298.1819    
    600000  -1283972.3     -253504.41      39089.961      1523.0249      162            108            54             944784         1291.4697    
    601000  -1282237.8     -253955.43      39430.102      1618.8247      162            108            54             944784         1301.8381    
    602000  -1281988.2     -254310.36      39414.117      1390.1775      162            108            54             944784         1303.2604    
    603000  -1282995.2     -253599.05      39703.986      1606.4218      162            108            54             944784         1295.2778    
    604000  -1281360.3     -252948.98      39853.06       1304.5814      162            108            54             944784         1301.268     
    605000  -1282602.7     -255694.31      39158.377      1904.8432      162            108            54             944784         1301.0668    
    606000  -1281375.8     -252752         39717.351      2032.9301      162            108            54             944784         1300.2134    
    607000  -1283494.7     -254909.38      39560.884      1402.9484      162            108            54             944784         1297.1877    
    608000  -1282996.2     -254063.8       39532.654      1602.9521      162            108            54             944784         1301.0832    
    609000  -1283948.5     -254581.52      39203.473      1215.4681      162            108            54             944784         1295.7795    
    610000  -1284221.1     -254864.33      39553.39       2206.3081      162            108            54             944784         1293.7552    
    611000  -1281350.9     -253677.36      40331.194      1652.8372      162            108            54             944784         1300.9975    
    612000  -1282255       -254377.72      39403.653      1441.4967      162            108            54             944784         1302.3165    
    613000  -1280733       -253961.74      39763.277      1871.8039      162            108            54             944784         1308.7874    
    614000  -1282840.1     -254460.13      39659.277      1217.3582      162            108            54             944784         1301.0943    
    615000  -1283208.6     -254339.08      39522.1        1524.5069      162            108            54             944784         1296.7843    
    616000  -1280689.9     -255269.59      39923.948      1723.0008      162            108            54             944784         1306.9989    
    617000  -1283067.4     -255040.55      38752.343      755.97635      162            108            54             944784         1301.0656    
    618000  -1283840.9     -254493.25      39657.722      1717.9205      162            108            54             944784         1293.8086    
    619000  -1282308.5     -254765.29      40117.461      1570.8397      162            108            54             944784         1302.8065    
    620000  -1282995.4     -254205.65      39459.852      1147.3746      162            108            54             944784         1300.7079    
    621000  -1281836.7     -253499.61      39894.742      1855.7683      162            108            54             944784         1299.0614    
    622000  -1281139.4     -254808.61      39703.176      1722.6813      162            108            54             944784         1302.0618    
    623000  -1281614.4     -255953.79      40001.18       1641.0892      162            108            54             944784         1301.9006    
    624000  -1282004.5     -254028.61      39976.804      1621.5634      162            108            54             944784         1295.6569    
    625000  -1282969.7     -254670.05      39727.011      1494.4235      162            108            54             944784         1295.3351    
    626000  -1283238.3     -255266.15      39650.614      1898.1349      162            108            54             944784         1291.3907    
    627000  -1280196.4     -255917.1       40073.576      1879.1901      162            108            54             944784         1310.5421    
    628000  -1283296.1     -256254.06      39557.193      1478.6299      162            108            54             944784         1298.6658    
    629000  -1282356.1     -255759.15      39679.431      1914.1899      162            108            54             944784         1306.0637    
    630000  -1283121.6     -253161.6       38868.001      1719.953       162            108            54             944784         1305.1551    
    631000  -1281707.1     -255127.83      39341.95       1957.8837      162            108            54             944784         1307.5474    
    632000  -1281386.9     -254034.05      40261.069      1383.6377      162            108            54             944784         1302.1851    
    633000  -1283169.6     -254078.63      39570.698      1220.2202      162            108            54             944784         1300.9789    
    634000  -1282646.1     -254255.89      38978.359      1602.3668      162            108            54             944784         1303.0263    
    635000  -1282032.8     -254015.08      39721.607      1441.9414      162            108            54             944784         1302.1462    
    636000  -1284207.9     -254732.65      39453.893      1726.6075      162            108            54             944784         1292.5094    
    637000  -1281644.4     -254184.59      39894.801      1704.3202      162            108            54             944784         1306.292     
    638000  -1283818.1     -256263.42      39326.922      1624.0532      162            108            54             944784         1295.8324    
    639000  -1279573.9     -252940.51      39799.218      1310.1822      162            108            54             944784         1313.7478    
    640000  -1284271       -253266.75      39717.413      1105.1958      162            108            54             944784         1293.0777    
    641000  -1283333.3     -253209.69      39948.945      1621.6801      162            108            54             944784         1293.0795    
    642000  -1284139.2     -254809.97      39641.991      1651.9765      162            108            54             944784         1296.0996    
    643000  -1283469.6     -254307.18      39527.992      1066.4273      162            108            54             944784         1297.0792    
    644000  -1284397.7     -254359.09      39247.436      1255.1179      162            108            54             944784         1295.3721    
    645000  -1282583.7     -254779.15      39793.165      1327.883       162            108            54             944784         1300.9443    
    646000  -1281045.6     -253830.77      39471.584      2034.1675      162            108            54             944784         1305.821     
    647000  -1283110.7     -254525.53      39431.035      1227.916       162            108            54             944784         1295.7468    
    648000  -1283774.8     -253037.85      38967.087      1384.109       162            108            54             944784         1293.2073    
    649000  -1281880       -253731.7       39470.776      1266.1312      162            108            54             944784         1300.0518    
    650000  -1284216.3     -255166.03      39082.776      1731.9898      162            108            54             944784         1297.808     
    651000  -1283205.7     -254520.9       39279.134      1529.5693      162            108            54             944784         1303.2207    
    652000  -1281664.8     -255923.95      39554.142      1849.5167      162            108            54             944784         1303.5767    
    653000  -1281955.5     -254017.13      39355.135      1524.2686      162            108            54             944784         1299.8247    
    654000  -1282237.5     -254286.32      39589.299      1653.2791      162            108            54             944784         1298.3235    
    655000  -1283290.9     -255229.98      39525.544      1039.6472      162            108            54             944784         1298.6284    
    656000  -1283084.5     -253732.07      39401.6        2081.3643      162            108            54             944784         1296.7726    
    657000  -1282700.5     -252852.77      39668.201      740.55232      162            108            54             944784         1295.8071    
    658000  -1281153.4     -254176.96      39930.617      1701.2644      162            108            54             944784         1306.183     
    659000  -1283773.3     -254497.72      39350.041      1993.7642      162            108            54             944784         1292.8176    
    660000  -1284822.8     -256052.5       39366.941      1569.5385      162            108            54             944784         1288.9916    
    661000  -1281695.9     -254795.1       39669.706      1648.6884      162            108            54             944784         1299.8345    
    662000  -1281415.6     -254242.21      40040.269      877.54619      162            108            54             944784         1300.1651    
    663000  -1282725.1     -254782.13      39634.484      1844.8129      162            108            54             944784         1299.8712    
    664000  -1281821.8     -255005.97      39958.026      2175.5542      162            108            54             944784         1304.4238    
    665000  -1282671.6     -255030.1       39904.928      1810.0633      162            108            54             944784         1298.7354    
    666000  -1281054.5     -254401.22      40077.217      1926.3643      162            108            54             944784         1301.5921    
    667000  -1282321.1     -254355.46      39273.723      1317.3155      162            108            54             944784         1305.2105    
    668000  -1282057       -254758.16      39685.508      1873.6117      162            108            54             944784         1299.3958    
    669000  -1283785.9     -255287.76      39228.012      1709.1103      162            108            54             944784         1294.0686    
    670000  -1281943.4     -253991.39      39241.486      1302.228       162            108            54             944784         1301.638     
    671000  -1282799.2     -252803.21      39398.661      1384.543       162            108            54             944784         1295.8521    
    672000  -1282761.2     -253520.73      39841.738      1347.6408      162            108            54             944784         1298.3482    
    673000  -1284657.7     -253192.07      39547.609      1210.747       162            108            54             944784         1288.5851    
    674000  -1282440.9     -255983.35      39694.855      1527.465       162            108            54             944784         1304.6073    
    675000  -1282798.6     -253347.75      39567.466      1544.7787      162            108            54             944784         1296.8869    
    676000  -1282096.9     -254433.39      40225.143      812.65632      162            108            54             944784         1299.7928    
    677000  -1282634.5     -254137.61      39998.813      1454.1141      162            108            54             944784         1296.4104    
    678000  -1281711.5     -255468.99      40027.266      1536.127       162            108            54             944784         1300.6017    
    679000  -1282484.7     -253881.59      39789.82       1345.0074      162            108            54             944784         1297.3061    
    680000  -1281915.6     -255856.47      39636.656      1837.5405      162            108            54             944784         1304.6248    
    681000  -1282200.5     -253900.41      39585.455      1618.1538      162            108            54             944784         1301.2356    
    682000  -1283196.3     -255612.29      39812.702      1571.3898      162            108            54             944784         1297.9611    
    683000  -1282054.4     -254518.98      39799.915      1514.5797      162            108            54             944784         1299.3737    
    684000  -1282193       -255177.14      39700.401      1266.7919      162            108            54             944784         1299.8337    
    685000  -1283303.6     -255763.24      39745.07       2185.5499      162            108            54             944784         1292.8524    
    686000  -1284067.6     -254364         39318.241      1654.0797      162            108            54             944784         1293.7827    
    687000  -1282085       -253666.81      39272.771      1171.3551      162            108            54             944784         1301.4524    
    688000  -1281860.1     -254495.29      39610.118      1829.5245      162            108            54             944784         1298.3262    
    689000  -1281677.8     -254383.03      39649.029      1837.0098      162            108            54             944784         1300.8832    
    690000  -1282361.2     -254186.27      39910.049      1501.2009      162            108            54             944784         1296.9385    
    691000  -1282664.7     -254250.63      39201.401      1690.1993      162            108            54             944784         1301.7419    
    692000  -1281454.1     -254637.8       39436.431      2035.5146      162            108            54             944784         1308.4736    
    693000  -1282287.9     -254407.24      39097.068      1265.1077      162            108            54             944784         1305.7597    
    694000  -1281461.6     -254745.38      40072.743      1833.8444      162            108            54             944784         1301.7806    
    695000  -1283477.6     -253301.83      39149.576      1282.0088      162            108            54             944784         1296.3923    
    696000  -1282415.9     -252430.52      39505.051      1291.1944      162            108            54             944784         1296.5296    
    697000  -1283054.9     -254411.53      39333.477      1694.1262      162            108            54             944784         1300.1289    
    698000  -1283304.8     -254771.94      39144.978      1676.2906      162            108            54             944784         1302.2559    
    699000  -1283862.8     -255896.89      39390.583      1519.0713      162            108            54             944784         1299.4285    
    700000  -1282520.9     -254477.22      39620.076      2171.9352      162            108            54             944784         1296.6669    
    701000  -1281968.9     -253690.34      39644.586      823.20524      162            108            54             944784         1298.5052    
    702000  -1283318       -255160.22      38991.321      1673.7724      162            108            54             944784         1296.9734    
    703000  -1280116       -253526.89      39962.954      1654.2077      162            108            54             944784         1307.5287    
    704000  -1282040.9     -254932.64      40386.103      1255.3332      162            108            54             944784         1296.7223    
    705000  -1281764.4     -253335.6       39713.375      956.42861      162            108            54             944784         1300.5181    
    706000  -1282443.4     -254081.21      39602.785      1653.0344      162            108            54             944784         1296.8831    
    707000  -1282020.2     -254874.69      39719.797      1698.2236      162            108            54             944784         1301.223     
    708000  -1284071.7     -253151.62      39005.248      1631.4415      162            108            54             944784         1292.1628    
    709000  -1282341.1     -254492.24      39369.845      1578.6511      162            108            54             944784         1298.8398    
    710000  -1282931.4     -253817.06      39844.934      1569.8888      162            108            54             944784         1292.6486    
    711000  -1282391.4     -254404.73      39330.475      1107.0278      162            108            54             944784         1303.1999    
    712000  -1281773.3     -254210.57      39663.156      1657.9894      162            108            54             944784         1304.0523    
    713000  -1281651.7     -253905.5       39517.25       1592.7253      162            108            54             944784         1304.5928    
    714000  -1282947.4     -256095.05      39541.375      1850.4587      162            108            54             944784         1297.7466    
    715000  -1283616.4     -253374.46      39161.676      1145.3759      162            108            54             944784         1293.9928    
    716000  -1281187.9     -253535.18      39238.931      1697.6332      162            108            54             944784         1308.2947    
    717000  -1281216.2     -254123.68      39818.846      1513.7183      162            108            54             944784         1307.3198    
    718000  -1281605.7     -254142.56      40407.68       1758.4468      162            108            54             944784         1300.3076    
    719000  -1283191.6     -255260.21      39769.956      1612.8491      162            108            54             944784         1306.54      
    720000  -1283882.3     -253851.08      39671.788      1414.1701      162            108            54             944784         1294.4453    
    721000  -1280379.9     -253962         40213.482      1803.6003      162            108            54             944784         1311.1558    
    722000  -1281416.4     -253718.88      39466.814      1338.7554      162            108            54             944784         1302.5176    
    723000  -1284034.6     -253735.87      39380.375      980.07121      162            108            54             944784         1291.5544    
    724000  -1282141.7     -252931.7       39712.395      1403.6253      162            108            54             944784         1295.4435    
    725000  -1282986.9     -254407.28      39599.745      1980.8119      162            108            54             944784         1298.1857    
    726000  -1281932.3     -254514         39678.696      1348.2482      162            108            54             944784         1302.5027    
    727000  -1283478.5     -254212.59      38651.157      1442.2293      162            108            54             944784         1298.7581    
    728000  -1280243.8     -254257.42      39655.85       1496.5661      162            108            54             944784         1307.371     
    729000  -1282408       -254319.06      39086.987      1762.2232      162            108            54             944784         1302.9038    
    730000  -1283006.3     -254147.25      39631.959      1249.4734      162            108            54             944784         1296.3458    
    731000  -1283536.7     -254964.62      39537.056      1285.0062      162            108            54             944784         1296.9875    
    732000  -1282731       -254521.4       39831.825      1573.8852      162            108            54             944784         1295.8773    
    733000  -1282575.9     -254461.7       39360.984      1868.7939      162            108            54             944784         1299.9999    
    734000  -1282238.1     -253959.79      39243.33       1721.8486      162            108            54             944784         1302.2078    
    735000  -1282163.4     -252825.66      39474.114      1454.1679      162            108            54             944784         1302.4235    
    736000  -1282876.8     -253430.62      39347.798      1635.2356      162            108            54             944784         1295.7255    
    737000  -1283046.8     -255272.03      39663.896      1822.9022      162            108            54             944784         1294.4161    
    738000  -1282794.4     -254940.11      39719.639      1702.3441      162            108            54             944784         1297.0324    
    739000  -1280977.6     -253862.8       39624.313      1553.0108      162            108            54             944784         1304.8927    
    740000  -1283521.4     -255284.42      38827.462      1618.4629      162            108            54             944784         1305.0381    
    741000  -1283878.8     -255148.06      38955.304      1741.5142      162            108            54             944784         1296.609     
    742000  -1282587.4     -255118.62      39703.486      2263.4612      162            108            54             944784         1295.3202    
    743000  -1281648.5     -254557.12      39793.338      1357.252       162            108            54             944784         1302.8088    
    744000  -1280948.4     -253449.32      39961.617      1299.1303      162            108            54             944784         1302.1972    
    745000  -1281310.9     -253161.5       38973.182      2172.8041      162            108            54             944784         1309.3325    
    746000  -1282186.6     -254704.73      39303.126      1312.889       162            108            54             944784         1306.8051    
    747000  -1282243       -254305.16      39559.564      1193.2355      162            108            54             944784         1301.357     
    748000  -1282367.8     -254083.55      39215.729      1459.9381      162            108            54             944784         1296.8059    
    749000  -1282751.3     -255097.5       39158.85       1772.5077      162            108            54             944784         1297.9359    
    750000  -1280961.2     -254365.56      39806.308      1394.5102      162            108            54             944784         1298.6629    
    751000  -1282813.8     -254438.89      39078.534      1629.0417      162            108            54             944784         1298.4303    
    752000  -1281663.6     -254652.64      39304.704      1389.4349      162            108            54             944784         1303.8066    
    753000  -1280497       -253841.23      39211.741      1347.951       162            108            54             944784         1307.0703    
    754000  -1281801.7     -255541.63      39548.252      2163.2579      162            108            54             944784         1304.7902    
    755000  -1282731.9     -254735.5       38952.47       1457.4964      162            108            54             944784         1305.8695    
    756000  -1282173.7     -254341.2       39481.94       1693.6034      162            108            54             944784         1299.7697    
    757000  -1281463.4     -252807.29      39259.519      1114.4368      162            108            54             944784         1305.1663    
    758000  -1282065.8     -253255.11      39155.509      1534.0126      162            108            54             944784         1298.9766    
    759000  -1282410.2     -254239.91      39617.007      1478.1192      162            108            54             944784         1294.3053    
    760000  -1282799.8     -255177.34      39335.901      2036.1225      162            108            54             944784         1302.5984    
    761000  -1283065       -254033.09      39084.481      1390.2731      162            108            54             944784         1296.7358    
    762000  -1282215.3     -254365.41      38982.884      1988.7107      162            108            54             944784         1305.1003    
    763000  -1282500       -254350.7       39547.177      1870.1543      162            108            54             944784         1296.0619    
    764000  -1282197.1     -254029.57      39792.581      1662.193       162            108            54             944784         1297.3907    
    765000  -1280250.7     -253205.2       38868.654      1704.8613      162            108            54             944784         1312.2817    
    766000  -1283538.9     -254513.24      39190.139      1743.7746      162            108            54             944784         1300.0193    
    767000  -1284656.7     -255909.21      39316.633      1687.8072      162            108            54             944784         1295.1577    
    768000  -1281605.4     -254419.17      39410.267      2185.7539      162            108            54             944784         1308.3738    
    769000  -1282636.3     -254710.27      39402.787      1340.5178      162            108            54             944784         1294.4121    
    770000  -1283684.4     -254842.09      39153.277      1958.3251      162            108            54             944784         1299.556     
    771000  -1283883.8     -254036.43      39067.663      1039.8111      162            108            54             944784         1293.2829    
    772000  -1283530.4     -254373.6       39502.17       1494.2115      162            108            54             944784         1297.7214    
    773000  -1282378.7     -254183.27      39281.825      1972.0185      162            108            54             944784         1301.244     
    774000  -1280937.4     -255079.3       39778.118      1516.4576      162            108            54             944784         1306.8211    
    775000  -1281582.3     -253655.03      39545.352      1649.6961      162            108            54             944784         1300.3027    
    776000  -1282227.1     -254628.61      39563.22       1582.961       162            108            54             944784         1300.8035    
    777000  -1283992.4     -254320.71      38824.036      1635.4425      162            108            54             944784         1297.7659    
    778000  -1281388.3     -253615.08      39540.525      1052.8071      162            108            54             944784         1300.6279    
    779000  -1283110.1     -253728.8       39604.905      1521.7351      162            108            54             944784         1294.7185    
    780000  -1281486.2     -253049.16      39916.407      1081.0754      162            108            54             944784         1300.9405    
    781000  -1283143.1     -254617.07      39651.525      1855.2683      162            108            54             944784         1299.8732    
    782000  -1279717       -253866.98      40274.107      1679.3062      162            108            54             944784         1304.5968    
    783000  -1283590.2     -254576.2       39537.461      1392.7018      162            108            54             944784         1292.6732    
    784000  -1283454.7     -254851.16      39582.524      1569.0724      162            108            54             944784         1296.5484    
    785000  -1281640.1     -253064.67      39147.948      1268.7272      162            108            54             944784         1300.2287    
    786000  -1283387       -254024.44      38825.889      1058.809       162            108            54             944784         1301.7804    
    787000  -1281259.8     -253138.58      39701.609      1730.8142      162            108            54             944784         1305.7791    
    788000  -1281577.6     -254026.43      39629.886      1113.8136      162            108            54             944784         1296.9787    
    789000  -1281852.8     -253846.69      39647.333      1226.2433      162            108            54             944784         1298.2736    
    790000  -1282798.7     -253569.99      39059.331      1245.2715      162            108            54             944784         1301.1769    
    791000  -1283947.1     -254452.99      39598.824      1799.8116      162            108            54             944784         1289.0143    
    792000  -1282170.5     -254105.66      39216.647      1754.878       162            108            54             944784         1304.6721    
    793000  -1281074.7     -253066.86      40138.365      2108.2976      162            108            54             944784         1303.0949    
    794000  -1282518.1     -255109.14      39610.261      1191.6035      162            108            54             944784         1299.4777    
    795000  -1282182.7     -252996.81      39441.238      1907.7485      162            108            54             944784         1299.9364    
    796000  -1282422.5     -254777.29      39433.588      1626.439       162            108            54             944784         1303.0992    
    797000  -1283171.9     -254346.03      39353.511      1656.0474      162            108            54             944784         1295.4658    
    798000  -1281888.5     -255184.32      39401.215      2030.304       162            108            54             944784         1303.3541    
    799000  -1282082.2     -253571.78      39448.433      1491.3422      162            108            54             944784         1303.3008    
    800000  -1283375.9     -253650.89      39032.658      1220.5963      162            108            54             944784         1295.7316    
    801000  -1283372.2     -254948.19      39347.16       1603.5514      162            108            54             944784         1294.4251    
    802000  -1283674.7     -254970.18      39506.955      1657.3762      162            108            54             944784         1297.3132    
    803000  -1282446.1     -255118.32      39447.22       1967.1612      162            108            54             944784         1299.3748    
    804000  -1279833.1     -254607.99      39293.849      1988.2571      162            108            54             944784         1308.9953    
    805000  -1282461.8     -254346.5       39589.336      1629.8818      162            108            54             944784         1301.867     
    806000  -1283291.3     -254210.42      39308.167      1459.4431      162            108            54             944784         1295.3055    
    807000  -1280826.5     -255848.54      39323.87       1731.0569      162            108            54             944784         1310.0105    
    808000  -1282125.9     -254339.36      39351.32       1747.964       162            108            54             944784         1296.9178    
    809000  -1283113.1     -253188.49      39297.306      1182.0824      162            108            54             944784         1295.375     
    810000  -1281941       -252866.58      39114.592      1739.5455      162            108            54             944784         1299.4608    
    811000  -1282859.6     -254708.81      38866.537      1506.5577      162            108            54             944784         1301.9252    
    812000  -1284092.2     -254739.94      39526.416      1586.2052      162            108            54             944784         1289.6806    
    813000  -1282215.2     -254649.22      39249.168      1672.0241      162            108            54             944784         1301.3109    
    814000  -1283642.8     -254828.94      39339.575      917.18468      162            108            54             944784         1300.4044    
    815000  -1282880.9     -253840.53      39457.397      1616.6523      162            108            54             944784         1304.6968    
    816000  -1282938.3     -254543.15      39505.318      1409.495       162            108            54             944784         1299.2515    
    817000  -1282405       -255044.86      39632.774      1710.1885      162            108            54             944784         1295.6581    
    818000  -1282199.1     -254054.25      39526.88       1692.8652      162            108            54             944784         1303.3293    
    819000  -1281408.6     -254348.04      39899.54       1477.7606      162            108            54             944784         1299.0823    
    820000  -1283450.1     -254994.21      39717.116      1503.6814      162            108            54             944784         1295.2892    
    821000  -1282198       -253822.3       39697.728      1797.1652      162            108            54             944784         1295.818     
    822000  -1281289.1     -254792.82      39629.244      1739.5315      162            108            54             944784         1301.6877    
    823000  -1282382.5     -254303.05      39393.343      1553.2424      162            108            54             944784         1302.0955    
    824000  -1283831.1     -254365.96      39527.692      1452.815       162            108            54             944784         1293.8433    
    825000  -1282652.9     -255018.36      39623.495      1831.934       162            108            54             944784         1302.6719    
    826000  -1283583.3     -254519.5       39363.226      1048.334       162            108            54             944784         1293.6268    
    827000  -1282040.5     -254372.04      39208.974      1842.1483      162            108            54             944784         1301.7989    
    828000  -1283062.1     -255394.14      39323.326      1842.9536      162            108            54             944784         1300.9275    
    829000  -1284627.5     -254949.83      39130.304      1341.7379      162            108            54             944784         1293.6993    
    830000  -1282758.8     -253983.37      39159.958      1473.496       162            108            54             944784         1300.7421    
Loop time of 66039.9 on 2 procs for 500000 steps with 50400 atoms

Performance: 0.654 ns/day, 36.689 hours/ns, 7.571 timesteps/s, 381.588 katom-step/s
99.7% CPU use with 2 MPI tasks x no OpenMP threads

MPI task timing breakdown:
Section |  min time  |  avg time  |  max time  |%varavg| %total
---------------------------------------------------------------
Pair    | 52123      | 52182      | 52240      |  25.6 | 79.02
Bond    | 823.38     | 825.58     | 827.79     |   7.7 |  1.25
Kspace  | 9079.7     | 9147.7     | 9215.7     |  71.1 | 13.85
Neigh   | 2911.3     | 2911.6     | 2911.8     |   0.5 |  4.41
Comm    | 247.1      | 254.82     | 262.55     |  48.4 |  0.39
Output  | 415.21     | 415.21     | 415.22     |   0.0 |  0.63
Modify  | 220.1      | 221.89     | 223.68     |  12.0 |  0.34
Other   |            | 81.37      |            |       |  0.12

Nlocal:          25200 ave       25250 max       25150 min
Histogram: 1 0 0 0 0 0 0 0 0 1
Nghost:        35890.5 ave       35939 max       35842 min
Histogram: 1 0 0 0 0 0 0 0 0 1
Neighs:    6.17614e+06 ave 6.20291e+06 max 6.14938e+06 min
Histogram: 1 0 0 0 0 0 0 0 0 1

Total # of neighbors = 12352289
Ave neighs/atom = 245.0851
Ave special neighs/atom = 2.4
Neighbor list builds = 20002
Dangerous builds = 0
unfix nvt

#-------------------------------Enfriamiento-----------------------------------------------------

fix nvt all nvt temp 1300.0 583.0 $(100*dt)
fix nvt all nvt temp 1300.0 583.0 100
run 1000000 #1 ns
PPPM initialization ...
  using 12-bit tables for long-range coulomb (../kspace.cpp:342)
  G vector (1/distance) = 0.24196708
  grid = 72 50 30
  stencil order = 5
  estimated absolute RMS force accuracy = 0.034752741
  estimated relative force accuracy = 0.00010465685
  using double precision KISS FFT
  3d grid and FFT values/proc = 83435 54000
Generated 0 of 3 mixed pair_coeff terms from geometric mixing rule
Per MPI rank memory allocation (min/avg/max) = 89.29 | 90.45 | 91.6 Mbytes
   Step         TotEng         E_coul         E_bond         Press            Lx             Ly             Lz           Volume          Temp     
    830000  -1282758.8     -253983.37      39159.958      1473.496       162            108            54             944784         1300.7421    
    831000  -1281238.7     -254100.5       39383.207      1748.9872      162            108            54             944784         1300.7349    
    832000  -1282295       -253509.23      39264.291      1932.1164      162            108            54             944784         1301.5913    
    833000  -1282573.7     -254715.52      39575.065      1520.519       162            108            54             944784         1296.542     
    834000  -1284157.2     -254041.17      39017.47       1728.6507      162            108            54             944784         1291.2844    
    835000  -1283961.7     -254619.14      39069.483      1498.8106      162            108            54             944784         1296.3427    
    836000  -1282923       -254963.01      39280.543      2018.1871      162            108            54             944784         1300.0191    
    837000  -1282998.2     -252794.65      38776.574      1343.9622      162            108            54             944784         1301.9764    
    838000  -1283359.2     -254325.14      38978.427      1280.3166      162            108            54             944784         1298.5586    
    839000  -1283979.7     -254637.8       39313.468      1801.6787      162            108            54             944784         1293.2581    
    840000  -1284500.8     -255175.61      38493.365      1403.092       162            108            54             944784         1294.3926    
    841000  -1286246.3     -256572.62      38987.957      1935.3305      162            108            54             944784         1287.3881    
    842000  -1284511.2     -254131.04      39328.786      1176.468       162            108            54             944784         1293.5862    
    843000  -1287556.6     -256152.92      39194.624      1766.715       162            108            54             944784         1284.6768    
    844000  -1285751.2     -254682.35      39461.13       1384.3648      162            108            54             944784         1285.0622    
    845000  -1285536.6     -255789.75      39431.012      1924.5506      162            108            54             944784         1287.4313    
    846000  -1284272.2     -255251.26      39385.669      1302.544       162            108            54             944784         1294.9478    
    847000  -1286273.1     -254337.24      39111.142      1400.5984      162            108            54             944784         1285.7196    
    848000  -1287410.5     -254834.14      38934.699      1298.4509      162            108            54             944784         1279.9389    
    849000  -1286577.8     -255032.72      38869.623      1898.5835      162            108            54             944784         1287.0955    
    850000  -1285536.4     -255119.97      38820.488      1443.711       162            108            54             944784         1293.7712    
    851000  -1284491.6     -255015.09      38696.012      1550.6368      162            108            54             944784         1296.0039    
    852000  -1286788       -255579.54      38977.196      1008.7585      162            108            54             944784         1284.941     
    853000  -1289334.2     -255303.02      38661.738      1886.3782      162            108            54             944784         1277.7298    
    854000  -1286687.7     -255548         38798.344      1613.483       162            108            54             944784         1284.9691    
    855000  -1287891.8     -254905.93      38728.875      1779.0393      162            108            54             944784         1276.2853    
    856000  -1288492.8     -255547         38832.214      1114.4798      162            108            54             944784         1282.8931    
    857000  -1287056       -256084.4       38857.831      1604.006       162            108            54             944784         1280.408     
    858000  -1289657.5     -255103.61      38379.343      1014.388       162            108            54             944784         1276.4152    
    859000  -1288685.9     -256645.22      38502.567      1882.8419      162            108            54             944784         1281.4485    
    860000  -1289320       -255517.58      38414.7        2033.3399      162            108            54             944784         1278.481     
    861000  -1290024.9     -256397.4       38509.08       1272.2536      162            108            54             944784         1276.1739    
    862000  -1287570.2     -254725.59      38261.62       1683.7732      162            108            54             944784         1282.729     
    863000  -1287605       -255023.29      38482.803      972.34864      162            108            54             944784         1283.9837    
    864000  -1289564.9     -256364.85      38850.59       1531.6553      162            108            54             944784         1274.2324    
    865000  -1291074.4     -255747.53      38509.405      1385.1396      162            108            54             944784         1268.7921    
    866000  -1289663.8     -256905.68      38860.573      1470.6468      162            108            54             944784         1277.6051    
    867000  -1290479.9     -255044.72      38599.843      1163.182       162            108            54             944784         1269.6552    
    868000  -1290107.4     -255347.2       38804.429      1445.6778      162            108            54             944784         1275.0884    
    869000  -1289999.2     -255189.98      38433.762      1462.2395      162            108            54             944784         1278.091     
    870000  -1293595.7     -256199.54      38545.357      1389.5175      162            108            54             944784         1259.9889    
    871000  -1288908.1     -255476.27      38373.324      1238.9895      162            108            54             944784         1276.0178    
    872000  -1290236.7     -255968.31      38709.319      1324.7299      162            108            54             944784         1271.997     
    873000  -1291359.3     -256743.25      38560.305      1548.8955      162            108            54             944784         1268.5413    
    874000  -1290433.5     -254856.51      38437.606      763.66785      162            108            54             944784         1265.0747    
    875000  -1290714       -253984.99      38644.846      1726.3884      162            108            54             944784         1264.7821    
    876000  -1291725.2     -254796.51      38452.951      1362.8636      162            108            54             944784         1265.6409    
    877000  -1291013.1     -256433.04      38436.526      1620.1859      162            108            54             944784         1270.5558    
    878000  -1293096.8     -256625.05      37968.709      901.14553      162            108            54             944784         1263.7956    
    879000  -1293496.1     -255891.54      38171.486      1139.722       162            108            54             944784         1257.7673    
    880000  -1293895.4     -255247.3       38226.753      1177.2586      162            108            54             944784         1259.0088    
    881000  -1293249.6     -255988.29      38332.587      1694.7049      162            108            54             944784         1262.9181    
    882000  -1291835.6     -256186.18      38324.315      1168.2762      162            108            54             944784         1271.5282    
    883000  -1293800.7     -257216.28      38199.961      1327.5095      162            108            54             944784         1257.3416    
    884000  -1293318.8     -256307.77      38741.994      1218.0782      162            108            54             944784         1260.1765    
    885000  -1294185.1     -256019.89      38621.761      1367.211       162            108            54             944784         1255.8353    
    886000  -1294486.2     -255749.67      38519.001      850.41493      162            108            54             944784         1255.2828    
    887000  -1292708.2     -256605.06      38611.692      1194.0587      162            108            54             944784         1260.0892    
    888000  -1295717.6     -256111.78      38309.214      1243.2073      162            108            54             944784         1256.1125    
    889000  -1294695.7     -256599.73      38582.697      879.00978      162            108            54             944784         1254.9355    
    890000  -1294366.8     -258223.45      38264.689      1846.413       162            108            54             944784         1255.3391    
    891000  -1295339.7     -257962.04      38481.738      1360.7185      162            108            54             944784         1255.4064    
    892000  -1294138.8     -255621.92      38483.779      1241.4411      162            108            54             944784         1255.6101    
    893000  -1296721.7     -259511.51      38472.437      1431.9897      162            108            54             944784         1250.7012    
    894000  -1295835.3     -256972.54      38133.853      1092.4887      162            108            54             944784         1255.0719    
    895000  -1296443.7     -256448.85      37974.18       1042.5295      162            108            54             944784         1247.3486    
    896000  -1296070.7     -256780.27      37970.435      978.05766      162            108            54             944784         1255.8634    
    897000  -1298039.9     -256519.27      37646.649      919.74426      162            108            54             944784         1246.9816    
    898000  -1296160.7     -256072.95      38351.641      1086.0883      162            108            54             944784         1244.0381    
    899000  -1296095.7     -257172.22      38308.207      981.25012      162            108            54             944784         1252.6167    
    900000  -1298290.8     -258302.83      37927.674      1579.9822      162            108            54             944784         1244.6566    
    901000  -1295501.8     -255568.15      38391.118      1139.4092      162            108            54             944784         1249.429     
    902000  -1298909.1     -257626.79      37865.994      746.90747      162            108            54             944784         1240.3391    
    903000  -1297760.2     -258175.83      37827.901      1308.3275      162            108            54             944784         1246.8001    
    904000  -1296185.1     -258453.92      37780.455      1394.9201      162            108            54             944784         1255.7276    
    905000  -1298495.2     -257293.15      38353.037      1087.8898      162            108            54             944784         1242.9533    
    906000  -1296281       -256273.04      38100.704      710.1818       162            108            54             944784         1248.598     
    907000  -1298698.5     -257753.77      37467.185      648.98459      162            108            54             944784         1247.2456    
    908000  -1297461.5     -256126.96      38031.89       949.61035      162            108            54             944784         1242.696     
    909000  -1298886.7     -256433.94      37983.433      542.6662       162            108            54             944784         1243.101     
    910000  -1298236.1     -258453.92      37547.943      1700.6954      162            108            54             944784         1240.1814    
    911000  -1298260.7     -256686.25      37981.613      694.97169      162            108            54             944784         1241.891     
    912000  -1299686.5     -256764.79      37427.956      830.56862      162            108            54             944784         1242.2124    
    913000  -1298906.1     -258419.16      37253.89       1449.1117      162            108            54             944784         1248.3223    
    914000  -1297985.9     -257328.89      37460.855      1055.3391      162            108            54             944784         1245.4482    
    915000  -1299663.3     -258225.77      37351.678      1249.1601      162            108            54             944784         1238.9594    
    916000  -1300720.7     -257138.61      37344.071      888.93442      162            108            54             944784         1236.4817    
    917000  -1300083.8     -257756.05      37354.492      1466.4052      162            108            54             944784         1242.4221    
    918000  -1302317.3     -258651.68      37225.001      669.16446      162            108            54             944784         1239.6626    
    919000  -1299669.6     -257891.97      38019.685      1114.0963      162            108            54             944784         1237.5416    
    920000  -1300261.3     -256811.45      37317.696      1110.8814      162            108            54             944784         1239.6863    
    921000  -1301588.2     -259112.07      37228.611      959.97911      162            108            54             944784         1232.2144    
    922000  -1301284.7     -257461.4       37048.98       1037.3028      162            108            54             944784         1232.1658    
    923000  -1299820.2     -259131.42      37530.352      1352.3226      162            108            54             944784         1239.8094    
    924000  -1302143.3     -258206.25      37329.882      779.74673      162            108            54             944784         1230.2558    
    925000  -1302639.2     -258492.76      37245.07       732.25845      162            108            54             944784         1225.7544    
    926000  -1303768.5     -259860.06      37275.322      1027.2482      162            108            54             944784         1226.289     
    927000  -1302705.1     -257550.53      37802.81       822.03519      162            108            54             944784         1227.1645    
    928000  -1302706.5     -259017.66      37211.379      981.91075      162            108            54             944784         1232.3242    
    929000  -1302080.7     -259148.3       37789.065      998.7082       162            108            54             944784         1231.5651    
    930000  -1303181       -259214.54      37349.097      1027.2983      162            108            54             944784         1227.3735    
    931000  -1302709.1     -258309.29      37368.189      1092.319       162            108            54             944784         1233.9634    
    932000  -1305191.5     -259041.03      37118.588      1050.691       162            108            54             944784         1219.0808    
    933000  -1301354.1     -259308.09      37243.11       1083.4371      162            108            54             944784         1237.0741    
    934000  -1304181.9     -258473.66      37185.883      1193.858       162            108            54             944784         1222.4824    
    935000  -1303614.9     -259183.81      37207.113      903.80855      162            108            54             944784         1223.5579    
    936000  -1303242.9     -259827.2       36995.03       928.44314      162            108            54             944784         1231.5446    
    937000  -1304328       -258993.54      36943.425      1344.9935      162            108            54             944784         1227.1636    
    938000  -1304850.5     -259324.19      37124.959      1014.6425      162            108            54             944784         1219.5974    
    939000  -1304475       -258606.65      36913.887      943.19524      162            108            54             944784         1225.0863    
    940000  -1303620.2     -259956.56      37127.371      1567.8815      162            108            54             944784         1232.4028    
    941000  -1305184.6     -258329.08      37041.987      769.68022      162            108            54             944784         1221.3098    
    942000  -1306844.2     -258804.5       37107.804      662.06384      162            108            54             944784         1214.3496    
    943000  -1305668.4     -259587.79      37196.147      1030.6601      162            108            54             944784         1219.1553    
    944000  -1305491.2     -259325.78      36954.658      1038.3331      162            108            54             944784         1219.3245    
    945000  -1304966.6     -259225.31      36574.661      1020.2457      162            108            54             944784         1225.803     
    946000  -1305588.8     -258946.62      36967.723      1302.2781      162            108            54             944784         1218.3282    
    947000  -1306198.3     -259261.54      36916.174      1232.8261      162            108            54             944784         1218.2849    
    948000  -1306724.3     -258330.25      36553.509      519.47655      162            108            54             944784         1217.5713    
    949000  -1308863       -259169.62      36845.393      538.17643      162            108            54             944784         1209.9009    
    950000  -1306849.1     -258889.96      36669.444      886.49212      162            108            54             944784         1218.1546    
    951000  -1306593.2     -257037.27      36424.949      779.43533      162            108            54             944784         1217.9326    
    952000  -1309195       -258568.87      36384.44       863.0435       162            108            54             944784         1209.9602    
    953000  -1308934.8     -259620.74      36511.971      580.80008      162            108            54             944784         1212.2675    
    954000  -1306777.6     -259123.49      36206.255      618.62501      162            108            54             944784         1217.3874    
    955000  -1308057.3     -258477.26      36586.667      1063.898       162            108            54             944784         1214.2264    
    956000  -1308966.9     -259032.35      36481.198      551.43234      162            108            54             944784         1209.5454    
    957000  -1308212.7     -259673.37      36941.617      919.12451      162            108            54             944784         1205.0716    
    958000  -1307829.2     -259273.04      36635.772      836.69469      162            108            54             944784         1207.257     
    959000  -1308957       -260804.26      36392.752      505.69734      162            108            54             944784         1206.338     
    960000  -1309130.7     -259145.42      36720.706      533.32957      162            108            54             944784         1204.5746    
    961000  -1308296.2     -258911.43      36577.325      560.09235      162            108            54             944784         1209.4189    
    962000  -1308312.5     -259356.33      36435.243      573.18709      162            108            54             944784         1211.5325    
    963000  -1309172       -258708.93      36918.734      127.27369      162            108            54             944784         1206.4317    
    964000  -1311694.1     -259448.66      36693.719      838.23647      162            108            54             944784         1194.9892    
    965000  -1310206.4     -259983.33      36652.545      495.18659      162            108            54             944784         1201.328     
    966000  -1311422.8     -261484.64      36641.099      1033.4264      162            108            54             944784         1200.4274    
    967000  -1310386.8     -259734.85      36566.249      715.13106      162            108            54             944784         1206.2995    
    968000  -1311118.8     -261231.82      36128.652      500.98937      162            108            54             944784         1202.2745    
    969000  -1311768.6     -261405.29      36499.948      1036.8765      162            108            54             944784         1198.2646    
    970000  -1312521.1     -259671.28      36589.843      413.88338      162            108            54             944784         1194.9875    
    971000  -1310878.2     -259810.68      36709.902      621.04337      162            108            54             944784         1197.41      
    972000  -1313190.1     -260799.67      36509.13       486.97823      162            108            54             944784         1189.9529    
    973000  -1313086.5     -261281.38      35872.215      1003.1041      162            108            54             944784         1197.1441    
    974000  -1311836.6     -259750.89      36464.356      386.44276      162            108            54             944784         1197.9599    
    975000  -1311319.5     -259705.89      36161.457      405.68742      162            108            54             944784         1197.6108    
    976000  -1313430.5     -259964.12      35867.724      843.74672      162            108            54             944784         1190.7405    
    977000  -1311664.8     -261031.26      36822.38       1324.2504      162            108            54             944784         1196.6877    
    978000  -1312773.3     -260361.67      36385.191      847.91559      162            108            54             944784         1194.7526    
    979000  -1312828       -260591.98      36207.916      568.12495      162            108            54             944784         1196.0001    
    980000  -1313019.7     -259977.24      36440.343      498.36818      162            108            54             944784         1192.8263    
    981000  -1313116.5     -259995.01      36272.782      788.37987      162            108            54             944784         1194.8494    
    982000  -1313286.5     -259599.02      36208.958      565.5976       162            108            54             944784         1193.8733    
    983000  -1313989.5     -260280.41      36106.357      839.5368       162            108            54             944784         1191.0609    
    984000  -1315264.2     -261089.32      36165.414      200.78374      162            108            54             944784         1186.1934    
    985000  -1314558.9     -262415.09      36365.577      1189.1324      162            108            54             944784         1188.6769    
    986000  -1313781.3     -262408.58      36485.036      1100.6025      162            108            54             944784         1194.9911    
    987000  -1315520.2     -261433.8       36233.652      519.08691      162            108            54             944784         1183.1339    
    988000  -1314745.8     -259235.33      36106.297      725.79073      162            108            54             944784         1189.8053    
    989000  -1313647       -260894.37      35808.869      1047.3712      162            108            54             944784         1194.7623    
    990000  -1315370.3     -260132.21      35902.136      12.404257      162            108            54             944784         1183.8408    
    991000  -1316933.6     -260409.93      35591.705      818.20239      162            108            54             944784         1185.4513    
    992000  -1315193       -260470.78      35914.19       369.56388      162            108            54             944784         1188.2388    
    993000  -1314487.6     -261948.9       36144.321      601.62658      162            108            54             944784         1184.6467    
    994000  -1316172.6     -261673.64      36036.843      662.94511      162            108            54             944784         1181.1673    
    995000  -1316455.8     -261898.05      35855.852      470.28911      162            108            54             944784         1183.2162    
    996000  -1317307.6     -261069.18      35559.131      858.21931      162            108            54             944784         1186.4752    
    997000  -1317296.8     -260525.86      35948.682      396.16188      162            108            54             944784         1177.012     
    998000  -1317260.3     -260674.81      36208.885      477.89157      162            108            54             944784         1172.1133    
    999000  -1317181.8     -262035.91      35923.458      799.19175      162            108            54             944784         1177.2097    
   1000000  -1316532.4     -260840.36      36109.63       570.76778      162            108            54             944784         1173.9941    
   1001000  -1317662.2     -261142.41      36561.85       48.994771      162            108            54             944784         1178.7336    
   1002000  -1318099.4     -261045.75      36109.559      650.16405      162            108            54             944784         1174.72      
   1003000  -1318317.3     -262008.35      35701.504      612.44646      162            108            54             944784         1173.2085    
   1004000  -1319337.3     -261502.82      35732.752      366.07247      162            108            54             944784         1172.2591    
   1005000  -1319101.7     -261966.84      35827.357      722.8498       162            108            54             944784         1171.0011    
   1006000  -1318029.7     -262100.32      35827.178      1140.9192      162            108            54             944784         1180.7878    
   1007000  -1318615.8     -261419.86      35836.555      320.04044      162            108            54             944784         1174.5519    
   1008000  -1317507.2     -261597.25      36541.363      755.85581      162            108            54             944784         1177.8718    
   1009000  -1319900.3     -262478.17      35454.074      586.68576      162            108            54             944784         1170.2       
   1010000  -1318640.7     -262603.59      35377.424      417.15037      162            108            54             944784         1175.8409    
   1011000  -1318909       -262022.48      35867.312      286.80141      162            108            54             944784         1171.9153    
   1012000  -1320931.2     -261844.55      35319.149      936.37932      162            108            54             944784         1168.1736    
   1013000  -1320344       -261533.37      35467.86       240.11686      162            108            54             944784         1172.7573    
   1014000  -1320446.7     -262118.84      35738          333.26148      162            108            54             944784         1166.4551    
   1015000  -1320412.3     -261105.58      35499.891      100.34807      162            108            54             944784         1164.8611    
   1016000  -1320331.7     -261316.56      35406.583      632.71587      162            108            54             944784         1163.6319    
   1017000  -1321807.6     -260896.5       35497.313     -179.7424       162            108            54             944784         1165.0789    
   1018000  -1320977.7     -261583.42      35678.891      78.192576      162            108            54             944784         1161.0294    
   1019000  -1320956.9     -261722.34      35543.02       622.68456      162            108            54             944784         1168.1087    
   1020000  -1322177       -261488.19      35147          392.30934      162            108            54             944784         1160.229     
   1021000  -1323333.2     -262011.38      35399.539      394.22429      162            108            54             944784         1158.4312    
   1022000  -1320253.5     -262577.9       35498.032      798.3135       162            108            54             944784         1167.6942    
   1023000  -1321742.5     -263536.1       35531.734      384.44003      162            108            54             944784         1169.0557    
   1024000  -1324380.4     -261884.93      34759.463      443.27591      162            108            54             944784         1153.9893    
   1025000  -1321577.5     -262928.4       35460.7        109.54625      162            108            54             944784         1164.2116    
   1026000  -1322374.6     -262071.85      34877.638      698.07995      162            108            54             944784         1169.3326    
   1027000  -1322468.8     -262045.76      35216.454     -195.91478      162            108            54             944784         1161.7954    
   1028000  -1325026.5     -261690.41      35010.251      4.5897584      162            108            54             944784         1147.7812    
   1029000  -1323990.7     -263019.5       35732.952      130.80769      162            108            54             944784         1153.5743    
   1030000  -1322267.9     -260437.1       35132.819      438.4588       162            108            54             944784         1159.0045    
   1031000  -1323913.7     -264091.74      35181.936      130.70384      162            108            54             944784         1158.5093    
   1032000  -1326286       -263334.77      34172.286      238.11048      162            108            54             944784         1150.9507    
   1033000  -1324468.5     -261393.12      34663.39      -224.57566      162            108            54             944784         1156.7011    
   1034000  -1324279.3     -262340.11      34821.325      577.21128      162            108            54             944784         1158.4659    
   1035000  -1323675.8     -262222.32      35041.807      214.64375      162            108            54             944784         1154.0493    
   1036000  -1324733.1     -263766.03      35189.983      602.89336      162            108            54             944784         1154.3288    
   1037000  -1324174.6     -263342.17      34965.929      418.04493      162            108            54             944784         1158.885     
   1038000  -1325384.7     -263580.52      34712.94       510.71993      162            108            54             944784         1154.8699    
   1039000  -1326616.6     -262998.13      34964.876      177.62476      162            108            54             944784         1148.4458    
   1040000  -1325680       -262891.21      35049.961      489.73698      162            108            54             944784         1152.1973    
   1041000  -1325076.4     -263212.53      34978.614      209.61748      162            108            54             944784         1151.5207    
   1042000  -1326109.5     -263492.12      34940.316      173.67425      162            108            54             944784         1154.2309    
   1043000  -1326369.9     -263905.39      34567.829      140.66651      162            108            54             944784         1147.8998    
   1044000  -1327340       -262103.11      34599.459      298.05573      162            108            54             944784         1141.1432    
   1045000  -1325551.1     -264047.57      34739.059      63.038037      162            108            54             944784         1155.9037    
   1046000  -1326579.9     -263691.38      35091.392      353.117        162            108            54             944784         1146.1588    
   1047000  -1327756.6     -263411.87      34530.107     -437.52425      162            108            54             944784         1143.6207    
   1048000  -1327802.9     -262646.28      34990.187      32.855146      162            108            54             944784         1137.1651    
   1049000  -1327943       -263018.12      35213.603      257.29744      162            108            54             944784         1135.5904    
   1050000  -1328575.7     -263678.91      34625.878      201.09671      162            108            54             944784         1140.2769    
   1051000  -1328143.5     -262752.65      34795.963      151.70588      162            108            54             944784         1136.5604    
   1052000  -1326810.5     -264109.26      34933.159      189.20712      162            108            54             944784         1149.6852    
   1053000  -1328107.6     -263993.4       34985.363     -46.296256      162            108            54             944784         1141.5563    
   1054000  -1329431.9     -263851         34863.826      170.61863      162            108            54             944784         1138.9329    
   1055000  -1326497.5     -262982.11      34951.307      346.43836      162            108            54             944784         1143.8442    
   1056000  -1328293.8     -264620.07      34933.092      25.676606      162            108            54             944784         1144.0458    
   1057000  -1329573.4     -263880.61      34281.954      633.09781      162            108            54             944784         1135.4808    
   1058000  -1329464.6     -263394.9       34269.692      114.82238      162            108            54             944784         1141.9499    
   1059000  -1330804.7     -263371.55      34237.752     -469.69438      162            108            54             944784         1131.7575    
   1060000  -1330820.2     -263943.46      34571.789      145.86351      162            108            54             944784         1133.7829    
   1061000  -1331859.3     -263968.56      34544.098      330.01682      162            108            54             944784         1125.3832    
   1062000  -1329562.6     -262413.14      34148.588      303.404        162            108            54             944784         1134.1265    
   1063000  -1330544.7     -264766.58      34891.391      408.02303      162            108            54             944784         1134.0996    
   1064000  -1329511.5     -263967.51      34371.677      464.14181      162            108            54             944784         1138.1219    
   1065000  -1331970.1     -262920.98      34670.739     -482.33015      162            108            54             944784         1128.5814    
   1066000  -1333461.5     -264651.61      34289.288      280.71653      162            108            54             944784         1123.9619    
   1067000  -1331413.8     -263933.72      34765.191      191.50403      162            108            54             944784         1127.8162    
   1068000  -1331603.6     -264307.79      34435.34       387.75123      162            108            54             944784         1127.0584    
   1069000  -1331297.3     -265204.27      34109.817      174.51484      162            108            54             944784         1138.0031    
   1070000  -1331018.4     -263776.21      34401.569      443.66094      162            108            54             944784         1130.4866    
   1071000  -1331921.9     -263792.36      33844.555      60.460589      162            108            54             944784         1126.8742    
   1072000  -1332607.4     -265549.89      34375.097      317.77287      162            108            54             944784         1124.6192    
   1073000  -1332868.4     -263119.51      34302.421      5.6605588      162            108            54             944784         1124.7789    
   1074000  -1332085.6     -265104.39      34056.921      466.47645      162            108            54             944784         1129.8182    
   1075000  -1332998.1     -263413.71      34515.324     -293.75804      162            108            54             944784         1125.6043    
   1076000  -1334278.3     -265665.51      34197.748      261.17049      162            108            54             944784         1118.5665    
   1077000  -1334192.4     -265371.47      33802.477      68.850812      162            108            54             944784         1122.3021    
   1078000  -1332165.3     -264910.4       33957.657     -76.062192      162            108            54             944784         1131.7186    
   1079000  -1334521.3     -264046.91      33959.466     -44.711306      162            108            54             944784         1118.9622    
   1080000  -1335891.4     -264750.17      33905.741     -4.707035       162            108            54             944784         1112.2491    
   1081000  -1333301.6     -264655.89      34104.309      547.06179      162            108            54             944784         1124.1321    
   1082000  -1335263.9     -265969.25      34401.538     -237.46654      162            108            54             944784         1114.1518    
   1083000  -1334635.6     -264133.9       33761.405      128.70548      162            108            54             944784         1121.5719    
   1084000  -1333864.3     -265227.9       33994.483      299.03515      162            108            54             944784         1121.6595    
   1085000  -1335015.9     -265574.37      34048.075      272.52934      162            108            54             944784         1118.3261    
   1086000  -1334417.1     -264913.77      33981.016     -24.202892      162            108            54             944784         1121.4335    
   1087000  -1335371       -265060.27      33963.389     -68.72999       162            108            54             944784         1123.3433    
   1088000  -1335212       -265359.48      33859.432      485.98859      162            108            54             944784         1117.7453    
   1089000  -1336402.7     -265120.6       34035.364     -214.06685      162            108            54             944784         1109.2074    
   1090000  -1336582.2     -265265.71      33760.95       181.29898      162            108            54             944784         1115.5984    
   1091000  -1336895.4     -264454.57      33537.411      83.094888      162            108            54             944784         1110.1593    
   1092000  -1335912.2     -265304.04      34532.402     -139.09186      162            108            54             944784         1114.9031    
   1093000  -1337626       -266053.04      33858.309      510.44721      162            108            54             944784         1108.2763    
   1094000  -1337731.1     -264635.41      33456.128     -345.35184      162            108            54             944784         1111.2284    
   1095000  -1337800.3     -264295.03      33771.968     -261.9622       162            108            54             944784         1109.9381    
   1096000  -1339053       -265459.5       33614.728     -10.191131      162            108            54             944784         1104.4733    
   1097000  -1338215.2     -265546.02      34187.868     -531.94428      162            108            54             944784         1109.2884    
   1098000  -1338083.5     -264444.21      33911.876      107.63567      162            108            54             944784         1105.3867    
   1099000  -1338169.6     -265866.53      33388.671     -360.03019      162            108            54             944784         1106.017     
   1100000  -1339163.8     -266067.36      33464.098      11.969266      162            108            54             944784         1106.6819    
   1101000  -1338693.6     -265940.25      33991.705      115.23211      162            108            54             944784         1105.4327    
   1102000  -1337996.6     -264916.25      34194.23       27.614481      162            108            54             944784         1107.3158    
   1103000  -1337928.8     -266321.81      33785.881     -448.15315      162            108            54             944784         1106.9824    
   1104000  -1339353.6     -266022.67      33737.428      125.03842      162            108            54             944784         1104.8801    
   1105000  -1338843.7     -265600.87      33652.802     -606.20976      162            108            54             944784         1109.07      
   1106000  -1342833.4     -267901.5       32851.894      312.10308      162            108            54             944784         1094.11      
   1107000  -1339147.6     -265668.44      33163.237      216.88641      162            108            54             944784         1104.0239    
   1108000  -1338240.5     -266097.34      34123.046     -446.83165      162            108            54             944784         1105.8188    
   1109000  -1339977.8     -265801.92      33577.091     -603.8655       162            108            54             944784         1103.5419    
   1110000  -1340272.9     -266282.28      33745.395      190.77219      162            108            54             944784         1097.205     
   1111000  -1341769.6     -265790.01      33189.091     -237.28715      162            108            54             944784         1090.3431    
   1112000  -1341283.1     -266569.1       33447.963      286.20283      162            108            54             944784         1098.4099    
   1113000  -1341492.4     -266382.27      33187.82      -220.45446      162            108            54             944784         1094.7227    
   1114000  -1341742.4     -265335.55      32983.245     -277.10421      162            108            54             944784         1094.3901    
   1115000  -1342251       -266548.23      33089.222     -475.91353      162            108            54             944784         1101.3654    
   1116000  -1341956.2     -267606.57      33025.746      259.78683      162            108            54             944784         1100.2598    
   1117000  -1342029.1     -267081.96      33065.328      49.065944      162            108            54             944784         1095.974     
   1118000  -1344319.9     -266489.7       33149.091     -211.44348      162            108            54             944784         1083.9294    
   1119000  -1341911.7     -265265.76      33452.381     -199.84393      162            108            54             944784         1092.5887    
   1120000  -1342023.5     -265938.79      33505.09      -342.25482      162            108            54             944784         1091.9927    
   1121000  -1343214       -265469.93      33103.119     -210.85401      162            108            54             944784         1089.3506    
   1122000  -1342266.6     -267189.87      33514.248     -820.17597      162            108            54             944784         1095.4365    
   1123000  -1342199.8     -268987.51      33673.691      386.00363      162            108            54             944784         1095.647     
   1124000  -1343174.7     -266712.67      33080.127     -532.76005      162            108            54             944784         1090.1635    
   1125000  -1344783.7     -267307.61      33170.481      6.9147454      162            108            54             944784         1085.309     
   1126000  -1345714.9     -266998.13      32687.308     -530.89499      162            108            54             944784         1082.5464    
   1127000  -1343766.7     -265823.97      33091.565     -258.21942      162            108            54             944784         1089.2834    
   1128000  -1344613.1     -267032.58      32519.148     -71.502515      162            108            54             944784         1087.7131    
   1129000  -1345674.9     -268321.76      32740.135     -226.06813      162            108            54             944784         1083.5802    
   1130000  -1344534.1     -267038.9       32808.892     -111.88248      162            108            54             944784         1091.3013    
   1131000  -1344214.9     -268491.91      32919.955     -501.8686       162            108            54             944784         1089.7765    
   1132000  -1346161.8     -268360.2       33333.079      219.06123      162            108            54             944784         1078.6252    
   1133000  -1346863.7     -268037.17      33143.941     -2.7212886      162            108            54             944784         1078.8152    
   1134000  -1346064.7     -268056.18      32800.838     -529.49331      162            108            54             944784         1085.4907    
   1135000  -1345686.6     -268618.02      32743.722     -245.96121      162            108            54             944784         1081.6504    
   1136000  -1346638.7     -268707.73      33357.357     -151.17811      162            108            54             944784         1078.0306    
   1137000  -1348433.5     -267976.85      32942.395     -191.0374       162            108            54             944784         1072.8761    
   1138000  -1346464.6     -266530.02      33218.604     -434.35883      162            108            54             944784         1075.1386    
   1139000  -1346402       -267883.65      32626.89      -605.07381      162            108            54             944784         1081.943     
   1140000  -1345028.2     -267966.23      33131.377     -29.194618      162            108            54             944784         1086.576     
   1141000  -1347127.7     -266390.52      33045.954     -474.63586      162            108            54             944784         1076.8399    
   1142000  -1347708.3     -266854.68      32769.501     -492.76427      162            108            54             944784         1075.6551    
   1143000  -1347097.9     -266746.98      32980.794      67.177031      162            108            54             944784         1077.1266    
   1144000  -1347603.2     -268248.52      33311.524     -750.68956      162            108            54             944784         1072.6274    
   1145000  -1348090.4     -268793.2       33163.135     -448.05754      162            108            54             944784         1072.4059    
   1146000  -1349488.1     -268864.93      32290.172     -207.17057      162            108            54             944784         1070.5367    
   1147000  -1350317.1     -268169.7       32627.378     -257.03637      162            108            54             944784         1061.9373    
   1148000  -1348400.4     -267635.46      32420.88      -593.41949      162            108            54             944784         1070.4995    
   1149000  -1348855.2     -267992.81      32405.253     -869.63366      162            108            54             944784         1070.3474    
   1150000  -1348369.7     -267348.58      32703.977     -492.16522      162            108            54             944784         1074.8237    
   1151000  -1349971.8     -268271.8       32445.659     -471.20054      162            108            54             944784         1067.0454    
   1152000  -1349279.1     -268647.78      33062.88      -540.62118      162            108            54             944784         1065.5263    
   1153000  -1348258.3     -268047.53      32417.839     -227.24745      162            108            54             944784         1070.7       
   1154000  -1350685.6     -268037.94      32786.893     -334.29772      162            108            54             944784         1062.7324    
   1155000  -1350543.6     -268472.56      32153.505     -355.377        162            108            54             944784         1069.3201    
   1156000  -1349330.6     -267347.7       32261.377     -344.84197      162            108            54             944784         1075.132     
   1157000  -1351271.5     -268759.35      32088.933     -564.04148      162            108            54             944784         1066.4953    
   1158000  -1350203.5     -268421.51      32577.01      -49.271518      162            108            54             944784         1064.7965    
   1159000  -1349486       -268365.02      32581.765     -555.85142      162            108            54             944784         1068.2219    
   1160000  -1352474.9     -269118.69      32484.628     -774.53849      162            108            54             944784         1051.6758    
   1161000  -1352053.5     -269433.11      32169.813      96.262671      162            108            54             944784         1059.9725    
   1162000  -1351375.5     -268920.62      32259.138     -610.92887      162            108            54             944784         1062.5705    
   1163000  -1351621.7     -269218.84      31930.349     -6.8436482      162            108            54             944784         1063.6417    
   1164000  -1353000.6     -268906.28      31993.246     -811.65775      162            108            54             944784         1060.6534    
   1165000  -1352564.1     -268692.2       32103.312     -261.58804      162            108            54             944784         1059.4591    
   1166000  -1352494.4     -268098.54      32328.288     -839.8893       162            108            54             944784         1059.0062    
   1167000  -1352666.8     -268883.33      32135.127     -999.19633      162            108            54             944784         1061.0221    
   1168000  -1353007.9     -269330.1       32622.561     -525.94322      162            108            54             944784         1054.5246    
   1169000  -1352596.2     -270303.37      32249.04      -129.06481      162            108            54             944784         1061.4507    
   1170000  -1354141.7     -269342.13      31603.888     -351.54214      162            108            54             944784         1056.9275    
   1171000  -1353577.7     -268842.33      31639.869     -1013.8556      162            108            54             944784         1056.131     
   1172000  -1353523.2     -268918.36      31794.47      -305.52113      162            108            54             944784         1059.5638    
   1173000  -1353913.6     -269452.46      31452.844     -438.55735      162            108            54             944784         1058.2507    
   1174000  -1353514.7     -268784.02      32087.296     -975.69814      162            108            54             944784         1052.6983    
   1175000  -1354343.5     -268093.58      31921.527     -387.34547      162            108            54             944784         1051.8372    
   1176000  -1354899.7     -268561.61      31937.681     -523.04625      162            108            54             944784         1051.3734    
   1177000  -1354709.9     -269188.77      32067.912     -411.85593      162            108            54             944784         1055.1514    
   1178000  -1354408.4     -268589.78      31741.36      -807.00004      162            108            54             944784         1052.9016    
   1179000  -1355723.8     -268961.12      31943.483     -654.72846      162            108            54             944784         1048.9477    
   1180000  -1354790.6     -270317.02      31857.268     -336.66219      162            108            54             944784         1052.33      
   1181000  -1355605.3     -269580.54      31597.633     -627.55404      162            108            54             944784         1047.9078    
   1182000  -1356198.3     -269998.71      31662.48      -684.87897      162            108            54             944784         1049.1357    
   1183000  -1355002.9     -270291.83      32357.245     -236.20988      162            108            54             944784         1047.3249    
   1184000  -1355439.5     -269476.9       31485.984     -492.3001       162            108            54             944784         1048.5592    
   1185000  -1358589.8     -269358.87      31597.546     -634.00605      162            108            54             944784         1037.7903    
   1186000  -1357171.8     -269281.4       31685.977     -852.21261      162            108            54             944784         1042.6086    
   1187000  -1355281.9     -269020.98      31882.158     -529.96769      162            108            54             944784         1045.4371    
   1188000  -1357945.4     -270026.9       31821.603     -627.65918      162            108            54             944784         1037.3495    
   1189000  -1357408       -270324.39      31702.077     -769.18516      162            108            54             944784         1040.046     
   1190000  -1358158.1     -270664.35      31583.573     -337.718        162            108            54             944784         1041.4315    
   1191000  -1356419.1     -269619.65      31791.244     -573.67622      162            108            54             944784         1046.5403    
   1192000  -1358293.4     -270027.99      31711.968     -860.98075      162            108            54             944784         1038.7058    
   1193000  -1358018.5     -269444.8       31940.172     -435.03541      162            108            54             944784         1036.6693    
   1194000  -1358405.7     -269466.85      31451.646     -927.94388      162            108            54             944784         1037.6642    
   1195000  -1359592.1     -270504.74      31194.383     -818.33508      162            108            54             944784         1037.2445    
   1196000  -1359636.2     -269570         31304.282     -809.92302      162            108            54             944784         1032.0967    
   1197000  -1358702       -268871.56      31752.221     -863.99552      162            108            54             944784         1032.7978    
   1198000  -1361323.4     -270956.02      31425.635     -639.4491       162            108            54             944784         1031.8744    
   1199000  -1359439.6     -271106.93      31707.482     -815.29005      162            108            54             944784         1031.3264    
   1200000  -1361050.9     -270209.56      30544.024     -355.40384      162            108            54             944784         1032.3578    
   1201000  -1359883.1     -270949.97      31421.625     -1217.6677      162            108            54             944784         1032.7833    
   1202000  -1360311.7     -270392.69      31135.101     -699.88081      162            108            54             944784         1033.1249    
   1203000  -1359938.4     -270881.15      31814.649     -500.79753      162            108            54             944784         1034.308     
   1204000  -1361568.2     -271438.26      31639.44      -506.46016      162            108            54             944784         1026.8659    
   1205000  -1360423.9     -270464.49      31023.595     -754.47195      162            108            54             944784         1029.4389    
   1206000  -1360086.1     -270467.74      31486.473     -522.03031      162            108            54             944784         1036.4328    
   1207000  -1361619.8     -270916.31      31493.5       -944.35307      162            108            54             944784         1028.9262    
   1208000  -1360156.9     -270246.34      31319.019     -844.45879      162            108            54             944784         1034.9527    
   1209000  -1362526.9     -271904.35      31025.532     -914.98926      162            108            54             944784         1026.4975    
   1210000  -1362971.3     -270762.22      30872.99      -778.86026      162            108            54             944784         1025.7704    
   1211000  -1362535.9     -271972.73      30784.118     -1065.4761      162            108            54             944784         1028.8199    
   1212000  -1362446.5     -271327.32      31228.972     -744.80973      162            108            54             944784         1023.6262    
   1213000  -1362206.4     -270969.08      31109.789     -829.78179      162            108            54             944784         1027.9132    
   1214000  -1363174.4     -270778.83      30915.551     -889.71515      162            108            54             944784         1026.5754    
   1215000  -1361348.9     -271065.27      31622.192     -960.4535       162            108            54             944784         1028.2923    
   1216000  -1361963.9     -271516.9       31010.078     -426.91958      162            108            54             944784         1029.3307    
   1217000  -1363450.3     -271072.35      31000.066     -863.32065      162            108            54             944784         1024.3827    
   1218000  -1365172.9     -272471.37      30335.431     -809.36274      162            108            54             944784         1021.7862    
   1219000  -1363585.3     -272015.01      30753.027     -350.31997      162            108            54             944784         1026.7867    
   1220000  -1363982.1     -271465.87      30840.099     -1133.7665      162            108            54             944784         1021.1539    
   1221000  -1363125.3     -271996.75      31001.909     -290.6681       162            108            54             944784         1024.3795    
   1222000  -1364602.5     -271572.78      30854.808     -695.64768      162            108            54             944784         1019.0225    
   1223000  -1364836.8     -271834.74      30697.775     -921.6136       162            108            54             944784         1017.5746    
   1224000  -1364811.9     -272922.19      30744.523     -745.01924      162            108            54             944784         1016.7815    
   1225000  -1365382.9     -272263.24      30925.075     -958.10218      162            108            54             944784         1012.8426    
   1226000  -1365496.7     -272364.71      30835.712     -468.64355      162            108            54             944784         1017.3832    
   1227000  -1365768.8     -272800.78      30590.027     -811.61435      162            108            54             944784         1016.3008    
   1228000  -1366362.5     -272074.92      30907.429     -935.50752      162            108            54             944784         1008.6007    
   1229000  -1366872.3     -271832.41      30357.433     -762.09343      162            108            54             944784         1009.5243    
   1230000  -1366017.6     -272366.91      30508.019     -929.97444      162            108            54             944784         1014.2991    
   1231000  -1364829       -272614.36      30851.79      -907.67272      162            108            54             944784         1021.7589    
   1232000  -1367050.7     -272821.76      30589.408     -823.12846      162            108            54             944784         1011.7287    
   1233000  -1367158.7     -272348.75      30657.003     -658.89786      162            108            54             944784         1010.5516    
   1234000  -1367846.1     -272751.57      30279.829     -925.60895      162            108            54             944784         1006.0516    
   1235000  -1367912.5     -270484.84      30450.08      -1043.4129      162            108            54             944784         1007.0157    
   1236000  -1367872.8     -271714.98      30360.866     -646.84572      162            108            54             944784         1008.322     
   1237000  -1367170       -273083.77      31036.2       -1041.5228      162            108            54             944784         1010.9825    
   1238000  -1366811.3     -271279.87      31334.323     -562.94119      162            108            54             944784         1011.4478    
   1239000  -1368122.1     -272367.07      30364.448     -1565.3879      162            108            54             944784         1012.0142    
   1240000  -1369426.6     -273001.28      30176.864     -563.22959      162            108            54             944784         1001.5004    
   1241000  -1368016.3     -272542.62      30402.43      -809.20832      162            108            54             944784         1003.3944    
   1242000  -1368588.3     -272414.58      30494.546     -1204.7015      162            108            54             944784         1004.0038    
   1243000  -1367840.1     -272677.79      30909.073     -307.38469      162            108            54             944784         1005.5357    
   1244000  -1369547.1     -272818.86      30730.569     -970.28233      162            108            54             944784         996.38327    
   1245000  -1369344.5     -272236.79      30593.144     -1326.28        162            108            54             944784         999.43514    
   1246000  -1369703       -273049.75      30833.699     -295.36376      162            108            54             944784         999.24902    
   1247000  -1370100.4     -273626.46      30610.008     -1516.6103      162            108            54             944784         1000.7183    
   1248000  -1369756       -272448.77      30012.851     -678.1164       162            108            54             944784         1001.1636    
   1249000  -1371080.6     -273258.38      30297.333     -1233.3607      162            108            54             944784         997.57144    
   1250000  -1370498.1     -273456.29      30126.426     -1084.5122      162            108            54             944784         1000.9744    
   1251000  -1371529.3     -274171.46      30299.658     -474.3332       162            108            54             944784         996.0318     
   1252000  -1370725       -272915.36      30142.014     -1305.7698      162            108            54             944784         999.16189    
   1253000  -1370272.6     -273529.16      30264.871     -748.06605      162            108            54             944784         1001.7177    
   1254000  -1371054       -273456.85      30172.919     -539.91393      162            108            54             944784         997.55753    
   1255000  -1371789.7     -272783.76      29809.826     -916.05677      162            108            54             944784         994.62521    
   1256000  -1371471.9     -272930.58      29718.506     -631.51394      162            108            54             944784         991.94188    
   1257000  -1372350.9     -273226.28      29770.601     -935.02837      162            108            54             944784         997.67209    
   1258000  -1372957.6     -274267.8       30032.849     -668.70714      162            108            54             944784         991.56077    
   1259000  -1371780.5     -272832.4       30237.373     -1060.9775      162            108            54             944784         993.44985    
   1260000  -1371731.9     -274027.96      30441.9       -911.74497      162            108            54             944784         993.66208    
   1261000  -1372576.6     -273212.82      30060.831     -1096.3639      162            108            54             944784         993.65112    
   1262000  -1373994.6     -274427.33      29765.528     -799.05938      162            108            54             944784         986.02324    
   1263000  -1373384.7     -274775.09      30172.714     -1018.5268      162            108            54             944784         991.04459    
   1264000  -1374369.1     -274453.44      30197.59      -1008.8293      162            108            54             944784         985.55945    
   1265000  -1373296.4     -274018.81      29933.933     -779.85237      162            108            54             944784         987.07721    
   1266000  -1374465.7     -274207.85      29724.928     -1244.0131      162            108            54             944784         983.00452    
   1267000  -1373572.4     -273873.72      30130.422     -1174.0732      162            108            54             944784         984.19487    
   1268000  -1374071.1     -274426.3       30180.338     -1009.8895      162            108            54             944784         989.42889    
   1269000  -1375342.1     -275368.13      29547.103     -906.54157      162            108            54             944784         989.24669    
   1270000  -1374259.3     -274709.3       30298.012     -1079.4644      162            108            54             944784         981.45804    
   1271000  -1375146.8     -273830.98      30000.532     -1121.9283      162            108            54             944784         983.48195    
   1272000  -1374987.4     -275264.99      29842.191     -752.73445      162            108            54             944784         984.64888    
   1273000  -1375243.4     -273653.67      29830.855     -1189.244       162            108            54             944784         983.5118     
   1274000  -1376679.3     -274152.35      29726.458     -1279.1902      162            108            54             944784         981.3301     
   1275000  -1375029.5     -273897.55      29988.517     -1171.8324      162            108            54             944784         984.24836    
   1276000  -1376285.9     -273907.39      29994.224     -1207.7259      162            108            54             944784         978.25362    
   1277000  -1375584       -274746.2       29395.844     -1265.1203      162            108            54             944784         983.60226    
   1278000  -1377086.8     -274223.12      29307.313     -955.38685      162            108            54             944784         981.02169    
   1279000  -1375859.3     -274560.99      29600.479     -1409.9203      162            108            54             944784         979.84382    
   1280000  -1377421.7     -273866.64      29609.034     -1226.9503      162            108            54             944784         977.8542     
   1281000  -1377339.6     -276248.14      30138.743     -310.27217      162            108            54             944784         975.63851    
   1282000  -1377967.8     -275190         29451.227     -1249.9256      162            108            54             944784         978.46109    
   1283000  -1377314       -273401.59      29791.913     -1227.1251      162            108            54             944784         978.05694    
   1284000  -1378028.2     -274041.18      29535.135     -1433.1114      162            108            54             944784         974.34697    
   1285000  -1378821.7     -276101.84      29477.784     -1089.9966      162            108            54             944784         975.75081    
   1286000  -1377929.6     -273750.68      29477.686     -1758.9739      162            108            54             944784         969.91071    
   1287000  -1378200.9     -275535.32      30064.071     -751.96162      162            108            54             944784         973.37007    
   1288000  -1377852.7     -273973.58      29639.359     -1500.2882      162            108            54             944784         970.62949    
   1289000  -1379744.2     -276667.31      29312.103     -942.83482      162            108            54             944784         967.43475    
   1290000  -1379519.3     -274715.91      29469.381     -1324.8799      162            108            54             944784         969.37319    
   1291000  -1380769.6     -275069.64      29046.669     -1313.4174      162            108            54             944784         967.37188    
   1292000  -1380292.3     -275615.47      29381.662     -1478.6482      162            108            54             944784         961.35116    
   1293000  -1379435.3     -275339.4       29497.246     -957.40241      162            108            54             944784         969.89712    
   1294000  -1380486       -276070.97      29165.872     -950.77185      162            108            54             944784         967.04558    
   1295000  -1379314.7     -275188.35      29459.422     -1427.1998      162            108            54             944784         970.20859    
   1296000  -1379893.6     -275421.8       29364.613     -1128.2204      162            108            54             944784         965.95016    
   1297000  -1380762.7     -276274         29112.089     -1379.3823      162            108            54             944784         965.93169    
   1298000  -1380790.7     -276609.53      29443.425     -1050.1171      162            108            54             944784         968.09464    
   1299000  -1381430       -275539.49      29201.134     -1278.1296      162            108            54             944784         963.78279    
   1300000  -1381799.4     -275604.96      29237.84      -1425.2413      162            108            54             944784         964.78597    
   1301000  -1381508.5     -275451.18      29097.735     -991.39028      162            108            54             944784         962.34708    
   1302000  -1382134.5     -276426.78      28861.807     -1440.3988      162            108            54             944784         963.99063    
   1303000  -1382464.7     -275098.89      29091.437     -1243.4109      162            108            54             944784         954.32889    
   1304000  -1382638.5     -276607.41      29039.141     -1001.7697      162            108            54             944784         959.90577    
   1305000  -1382805.9     -277526.51      29190.596     -1022.2866      162            108            54             944784         963.2174     
   1306000  -1382691.9     -276420.77      29187.382     -1353.948       162            108            54             944784         960.18025    
   1307000  -1383593.8     -276198.85      28991.395     -1188.1988      162            108            54             944784         957.37019    
   1308000  -1383677.1     -276582.79      29060.767     -1360.7682      162            108            54             944784         955.36526    
   1309000  -1384695       -276660.09      29599.963     -1467.1269      162            108            54             944784         950.9635     
   1310000  -1382817.1     -275931.46      29145.443     -1337.862       162            108            54             944784         956.56961    
   1311000  -1384796.8     -277179.64      29204.038     -1593.5649      162            108            54             944784         956.57969    
   1312000  -1384500.3     -276416.82      28638.076     -1077.3327      162            108            54             944784         950.62114    
   1313000  -1383520.3     -276389.72      28796.325     -1093.4774      162            108            54             944784         959.34788    
   1314000  -1384618.4     -277328.87      29028.896     -1741.6961      162            108            54             944784         955.05857    
   1315000  -1385254.1     -275887.21      28938.924     -1579.8291      162            108            54             944784         947.27381    
   1316000  -1385758       -276447.3       28753.548     -1573.6515      162            108            54             944784         947.3867     
   1317000  -1384370.6     -276684.71      28733.076     -732.93593      162            108            54             944784         954.40997    
   1318000  -1384831.4     -276533.14      28485.438     -1978.1613      162            108            54             944784         952.87309    
   1319000  -1386366.4     -276431.56      28390.548     -1297.1065      162            108            54             944784         942.48763    
   1320000  -1384949.6     -276391.32      28824.47      -958.26207      162            108            54             944784         950.52455    
   1321000  -1386520.1     -278310.5       28764.029     -1527.5674      162            108            54             944784         947.67771    
   1322000  -1384751.5     -276749.75      28847.841     -1029.8026      162            108            54             944784         951.78684    
   1323000  -1386146.6     -276784.88      28532.203     -1175.996       162            108            54             944784         952.57278    
   1324000  -1386600.1     -275803.85      28638.281     -1410.0262      162            108            54             944784         947.39474    
   1325000  -1386719.4     -277949.5       28487.764     -1637.3614      162            108            54             944784         947.86214    
   1326000  -1387657.9     -276691.65      28320.191     -1587.54        162            108            54             944784         940.27197    
   1327000  -1386084.4     -277133.89      28764.9       -1022.3631      162            108            54             944784         948.21022    
   1328000  -1387665.2     -276843.46      28426.308     -1634.406       162            108            54             944784         941.09051    
   1329000  -1387178.6     -278039.42      28668.393     -1441.7403      162            108            54             944784         942.79904    
   1330000  -1388056.1     -278020.59      28404.493     -1424.4207      162            108            54             944784         941.59555    
   1331000  -1387163.7     -275768.11      28414.723     -1745.6968      162            108            54             944784         942.46775    
   1332000  -1388430.3     -277949.81      28407.341     -1570.4851      162            108            54             944784         940.36458    
   1333000  -1390455.3     -277579.71      28531.979     -1211.5343      162            108            54             944784         928.39353    
   1334000  -1387787.1     -277086.44      28314.929     -1186.9717      162            108            54             944784         938.01593    
   1335000  -1389391.4     -277761.71      28318.307     -1473.2321      162            108            54             944784         933.3398     
   1336000  -1389595.4     -278512.13      28323.03      -1701.1387      162            108            54             944784         933.81922    
   1337000  -1389262.8     -278275.09      28501.126     -1185.4049      162            108            54             944784         935.16032    
   1338000  -1390696.5     -278544.09      28267.108     -1422.4162      162            108            54             944784         933.07168    
   1339000  -1389962.8     -278560.26      28322.296     -1198.5002      162            108            54             944784         936.33238    
   1340000  -1389139.4     -278886.43      28400.717     -1622.7101      162            108            54             944784         938.88447    
   1341000  -1390135.3     -278266.75      28494.374     -1208.9888      162            108            54             944784         931.19223    
   1342000  -1389920.7     -278461.49      28474.255     -1145.2483      162            108            54             944784         934.83446    
   1343000  -1390602.1     -279015.51      28314.234     -1361.7373      162            108            54             944784         935.26368    
   1344000  -1391243       -278660.12      28450.703     -1451.9786      162            108            54             944784         930.7658     
   1345000  -1390175.8     -278651.62      28526.498     -1756.2492      162            108            54             944784         936.07592    
   1346000  -1390745.4     -278464.79      28474.844     -773.29654      162            108            54             944784         930.96096    
   1347000  -1391747.1     -279114.3       28130.489     -1759.4318      162            108            54             944784         932.78999    
   1348000  -1392982.7     -279193.62      28032.977     -1459.4425      162            108            54             944784         924.19222    
   1349000  -1391657.2     -279326.11      28636.842     -1008.3478      162            108            54             944784         928.98709    
   1350000  -1392581.1     -279099.53      28008.266     -1776.1375      162            108            54             944784         926.07392    
   1351000  -1391789.8     -277223.45      28358.487     -1289.4667      162            108            54             944784         927.67314    
   1352000  -1392128.5     -278976.17      28478.268     -1300.8452      162            108            54             944784         924.44115    
   1353000  -1392913.9     -279176.06      28407.856     -1442.9043      162            108            54             944784         924.90523    
   1354000  -1392452       -280331.26      28042.427     -1451.6277      162            108            54             944784         928.68223    
   1355000  -1392141       -278882.26      27790.931     -1420.9112      162            108            54             944784         927.71687    
   1356000  -1394067.8     -278665.11      27782.689     -2000.1963      162            108            54             944784         923.1997     
   1357000  -1393514.6     -278042.76      27752.563     -1768.8033      162            108            54             944784         923.8996     
   1358000  -1394059.7     -277902.27      27980.428     -1811.4007      162            108            54             944784         919.57631    
   1359000  -1393998.9     -279029.37      28143.075     -1591.4909      162            108            54             944784         921.10462    
   1360000  -1394466.7     -278700.62      27929.606     -1661.9639      162            108            54             944784         919.95066    
   1361000  -1393825.6     -279641.08      28324.224     -1220.7184      162            108            54             944784         922.38467    
   1362000  -1395309.2     -279732.26      28275.79      -1308.5735      162            108            54             944784         914.00091    
   1363000  -1396255.8     -280161.35      27915.279     -1702.3706      162            108            54             944784         912.90754    
   1364000  -1394650.2     -279420.3       28016.584     -1703.3705      162            108            54             944784         918.67441    
   1365000  -1396158.5     -279755.57      27633.293     -1347.4979      162            108            54             944784         915.74504    
   1366000  -1395497.2     -279950.87      27941.85      -1627.2003      162            108            54             944784         917.69822    
   1367000  -1395705       -278682.32      27708.742     -1529.5353      162            108            54             944784         910.65405    
   1368000  -1395833.3     -279674.51      28028.825     -1358.5747      162            108            54             944784         914.66114    
   1369000  -1397664.6     -280511.65      27611.714     -1570.4603      162            108            54             944784         907.70336    
   1370000  -1396472.7     -279194.66      27872.808     -1925.2432      162            108            54             944784         909.72652    
   1371000  -1397950.9     -280533.84      27185.668     -1154.4887      162            108            54             944784         906.33876    
   1372000  -1395756.2     -280145.5       27792.766     -1404.6643      162            108            54             944784         912.40623    
   1373000  -1397375.5     -279790.1       27638.704     -2052.7062      162            108            54             944784         911.06972    
   1374000  -1397566.5     -279747.09      27432.271     -1782.9059      162            108            54             944784         911.64042    
   1375000  -1397088.6     -279941.75      27658.434     -1389.4074      162            108            54             944784         905.67368    
   1376000  -1396807.9     -279329.23      28094.328     -1779.7331      162            108            54             944784         907.89401    
   1377000  -1398415.7     -280837.48      27391.256     -1351.3656      162            108            54             944784         909.30676    
   1378000  -1397848.8     -281033.07      27159.144     -1492.6914      162            108            54             944784         912.51412    
   1379000  -1398169.4     -280675.03      27774.32      -1564.4741      162            108            54             944784         908.72044    
   1380000  -1398887.4     -281195.18      27305.825     -1623.7524      162            108            54             944784         910.04139    
   1381000  -1399813.7     -280006.79      27478.87      -1964.1752      162            108            54             944784         902.11585    
   1382000  -1398974       -281072.89      27084.087     -1551.7386      162            108            54             944784         908.12879    
   1383000  -1400206.5     -279736.51      27417.108     -1691.3208      162            108            54             944784         894.36526    
   1384000  -1398765.6     -280420.51      27622.723     -1860.5862      162            108            54             944784         904.85211    
   1385000  -1400625       -279445.08      27353.941     -1669.0549      162            108            54             944784         898.75237    
   1386000  -1399069.6     -280986.92      27670.316     -1588.2063      162            108            54             944784         907.09697    
   1387000  -1399427.3     -281718.9       27618.197     -1561.4354      162            108            54             944784         901.93       
   1388000  -1400972.9     -281999.17      27252.04      -2036.4032      162            108            54             944784         902.05489    
   1389000  -1400648.4     -280385.69      27261.107     -1907.2015      162            108            54             944784         899.55694    
   1390000  -1401235.4     -281335.94      27151.172     -1508.04        162            108            54             944784         898.7804     
   1391000  -1401480.8     -281114.43      27398.651     -1908.206       162            108            54             944784         893.95691    
   1392000  -1401401.2     -281496.41      27201.549     -1587.108       162            108            54             944784         895.45861    
   1393000  -1402260.8     -281688.64      26967.506     -1754.7847      162            108            54             944784         895.52591    
   1394000  -1401028.7     -280134.24      27214.625     -1789.1005      162            108            54             944784         898.25539    
   1395000  -1402779.9     -282320.31      26752.232     -1934.3445      162            108            54             944784         893.41861    
   1396000  -1402474       -281090.11      26873.046     -1569.0006      162            108            54             944784         897.18681    
   1397000  -1401046       -279873.23      27472.577     -1966.0006      162            108            54             944784         894.90132    
   1398000  -1402418.9     -280070.11      27169.453     -1857.6163      162            108            54             944784         890.62427    
   1399000  -1401581.4     -280460.34      27260.26      -2140.523       162            108            54             944784         893.20662    
   1400000  -1402321.8     -281950.22      27016.681     -1597.7229      162            108            54             944784         893.12136    
   1401000  -1402949.5     -281543.6       26931.425     -1574.1154      162            108            54             944784         891.1558     
   1402000  -1403833.9     -282708.86      27228.728     -1943.0084      162            108            54             944784         888.03699    
   1403000  -1404496.2     -282459.71      26373.124     -1650.111       162            108            54             944784         889.75415    
   1404000  -1403825.2     -282663.16      27104.02      -1445.8128      162            108            54             944784         891.22738    
   1405000  -1403237.5     -281161.94      26971.608     -2389.8682      162            108            54             944784         888.98672    
   1406000  -1404958.2     -281906.84      26922.358     -1727.6346      162            108            54             944784         882.5703     
   1407000  -1404999.1     -282234.66      26770.732     -1934.8928      162            108            54             944784         886.95434    
   1408000  -1406088.8     -283121.57      26844.359     -1817.7591      162            108            54             944784         886.46792    
   1409000  -1405170       -283216.45      26873.648     -1208.5086      162            108            54             944784         882.19736    
   1410000  -1406389.6     -283592.84      26843.932     -1981.0382      162            108            54             944784         884.65633    
   1411000  -1404573.9     -283133.04      27089.799     -2095.399       162            108            54             944784         890.78903    
   1412000  -1404879       -282764.13      27234.603     -1476.4698      162            108            54             944784         885.14127    
   1413000  -1405646.9     -281502.03      26962.741     -2284.4408      162            108            54             944784         882.22033    
   1414000  -1405269.5     -282076.87      26901.914     -1707.7661      162            108            54             944784         886.07855    
   1415000  -1407386.2     -282391.6       26919.952     -2247.2271      162            108            54             944784         877.51794    
   1416000  -1406339.7     -282186.44      26645.586     -1797.3725      162            108            54             944784         881.28057    
   1417000  -1407182.4     -282567.01      26815.695     -1997.6952      162            108            54             944784         880.4272     
   1418000  -1407029.9     -282037.06      26697.309     -1834.2973      162            108            54             944784         876.64565    
   1419000  -1407241.1     -283245.78      26716.89      -2002.0948      162            108            54             944784         879.53377    
   1420000  -1406971.5     -281851.68      26708.687     -1913.773       162            108            54             944784         877.10158    
   1421000  -1408475.4     -283351.04      26866.288     -1942.1182      162            108            54             944784         875.21439    
   1422000  -1408686.5     -283129.21      26642.084     -2086.1912      162            108            54             944784         873.94055    
   1423000  -1407066.1     -283374.32      26888.143     -1673.6177      162            108            54             944784         879.74989    
   1424000  -1408920.1     -283161.58      26639.213     -2082.5545      162            108            54             944784         873.50734    
   1425000  -1408352       -282684.01      26821.728     -1933.7031      162            108            54             944784         874.33027    
   1426000  -1408357.7     -284102.16      26788.563     -1793.9672      162            108            54             944784         873.00302    
   1427000  -1408567.2     -283593.55      26924.864     -1670.4924      162            108            54             944784         873.18331    
   1428000  -1409854.9     -283616.6       26698.291     -1522.573       162            108            54             944784         868.26263    
   1429000  -1409773.9     -283315.25      26295.682     -2181.1737      162            108            54             944784         869.94636    
   1430000  -1409754.7     -284321.58      26681.497     -1785.1364      162            108            54             944784         871.14069    
   1431000  -1410169.5     -282753.93      26544.789     -1861.0961      162            108            54             944784         865.80259    
   1432000  -1410000       -283434.25      26224.326     -2237.5252      162            108            54             944784         871.27922    
   1433000  -1410397       -283650.04      26362.293     -1790.071       162            108            54             944784         868.83981    
   1434000  -1410795.9     -283070.27      26569.175     -2018.9694      162            108            54             944784         864.94421    
   1435000  -1410341.1     -282607.01      26451.294     -2504.8459      162            108            54             944784         866.13852    
   1436000  -1410847.2     -282669.58      26158.031     -1633.968       162            108            54             944784         862.53461    
   1437000  -1410571.6     -282512.69      26403.409     -1847.1482      162            108            54             944784         866.47246    
   1438000  -1411519.8     -283740.68      26166.291     -2275.5826      162            108            54             944784         865.63282    
   1439000  -1412566       -283689.82      25931.494     -1954.4465      162            108            54             944784         861.34922    
   1440000  -1411385.2     -283435.32      26126.255     -2051.6227      162            108            54             944784         866.9255     
   1441000  -1412440.5     -283202.7       26187.511     -2264.2682      162            108            54             944784         861.04397    
   1442000  -1412209.2     -282800.5       25835.644     -2121.9252      162            108            54             944784         860.61327    
   1443000  -1413523.4     -284974.03      25898.549     -2235.5744      162            108            54             944784         861.38471    
   1444000  -1412934.1     -284779.59      26115.633     -1710.1517      162            108            54             944784         860.8683     
   1445000  -1413948.7     -284489.02      26254.301     -1933.011       162            108            54             944784         858.55512    
   1446000  -1412726.9     -285623.59      26220.575     -1985.5642      162            108            54             944784         860.63912    
   1447000  -1413314.7     -284313.88      25963.148     -1881.5595      162            108            54             944784         856.87976    
   1448000  -1414446.2     -285513.28      25992.682     -2020.0913      162            108            54             944784         858.57822    
   1449000  -1413239.9     -284166.38      25897.541     -2221.9672      162            108            54             944784         860.14062    
   1450000  -1415363.6     -286220.16      26016.056     -1913.8911      162            108            54             944784         852.77463    
   1451000  -1414268.6     -285905.46      26039.823     -2090.9074      162            108            54             944784         857.97456    
   1452000  -1414978       -286046         26275.365     -1742.4804      162            108            54             944784         851.79472    
   1453000  -1417175.4     -285403         25918.185     -2063.4096      162            108            54             944784         846.72513    
   1454000  -1415746.8     -284599.61      25769.165     -2486.9026      162            108            54             944784         849.73018    
   1455000  -1416187.1     -286055.55      25873.014     -1739.1217      162            108            54             944784         853.42061    
   1456000  -1416317.2     -285093.78      25632.036     -2032.3832      162            108            54             944784         852.09466    
   1457000  -1416776.5     -285944.78      25644.732     -1678.6954      162            108            54             944784         850.84189    
   1458000  -1415587.5     -284758.86      25801.932     -2309.2474      162            108            54             944784         847.0603     
   1459000  -1417641.5     -285655.02      25331.384     -2160.8185      162            108            54             944784         845.5524     
   1460000  -1417330.8     -284698.46      25523.629     -2346.4944      162            108            54             944784         847.94535    
   1461000  -1415787.9     -284266.55      25739.619     -1960.7524      162            108            54             944784         848.30012    
   1462000  -1416444.1     -285733.76      25823.474     -2319.4975      162            108            54             944784         847.18619    
   1463000  -1417353.5     -285145.83      25994.616     -2271.1428      162            108            54             944784         844.35528    
   1464000  -1416243.6     -285237.09      25985.314     -2466.3033      162            108            54             944784         847.65957    
   1465000  -1415968.4     -286208.81      25910.467     -2187.1381      162            108            54             944784         853.6538     
   1466000  -1417246.5     -286543.97      26131.357     -1936.6831      162            108            54             944784         847.25545    
   1467000  -1418740.6     -285949.84      25684.079     -2508.58        162            108            54             944784         842.86964    
   1468000  -1417658.5     -286298.4       25747.263     -2274.1133      162            108            54             944784         847.83498    
   1469000  -1418430.9     -284822.67      25229.42      -2038.3996      162            108            54             944784         843.01373    
   1470000  -1418464.3     -286196.83      25319.849     -2449.0578      162            108            54             944784         842.85204    
   1471000  -1419486.3     -286163.93      25404.604     -2390.2797      162            108            54             944784         836.56999    
   1472000  -1419566.8     -286164.63      25481.443     -1986.1634      162            108            54             944784         838.66698    
   1473000  -1419234.1     -285848.87      25371.197     -2160.3114      162            108            54             944784         842.84128    
   1474000  -1418424.3     -285436.58      25509.437     -2288.3573      162            108            54             944784         840.75385    
   1475000  -1420010.6     -286366.97      25310.091     -2046.528       162            108            54             944784         836.44069    
   1476000  -1420733       -287060.67      25559.121     -2379.1324      162            108            54             944784         838.15378    
   1477000  -1420467.8     -286130.89      25595.776     -2255.1131      162            108            54             944784         833.70343    
   1478000  -1420766.7     -287601.74      25368.767     -1841.0751      162            108            54             944784         835.07768    
   1479000  -1420402.2     -286955.79      25534.787     -2202.4026      162            108            54             944784         836.63903    
   1480000  -1420387       -287051.24      25287.923     -1978.5515      162            108            54             944784         836.66045    
   1481000  -1420965.4     -286514.34      25157.602     -2216.1849      162            108            54             944784         831.90535    
   1482000  -1421567.3     -287357.92      25200.745     -1901.9498      162            108            54             944784         834.01742    
   1483000  -1421411.8     -287714.95      25308.362     -2267.3344      162            108            54             944784         833.40182    
   1484000  -1422253       -286861.18      25185.476     -2156.1588      162            108            54             944784         829.2207     
   1485000  -1422016.2     -286150.18      25312.911     -2545.9477      162            108            54             944784         827.93748    
   1486000  -1422952.7     -285940.55      25045.501     -2367.8174      162            108            54             944784         822.61035    
   1487000  -1423741.2     -286775.33      25071.94      -2323.6576      162            108            54             944784         825.31922    
   1488000  -1422736.6     -287811.08      25144.935     -2581.0338      162            108            54             944784         824.82702    
   1489000  -1423668.2     -288527.67      24954.988     -1682.9798      162            108            54             944784         827.27135    
   1490000  -1421968.5     -286297.24      25132.473     -2385.4805      162            108            54             944784         827.82825    
   1491000  -1423591.3     -286967.08      25227.366     -2172.7656      162            108            54             944784         822.70387    
   1492000  -1422172.7     -286511.62      25065.906     -2116.0823      162            108            54             944784         829.82025    
   1493000  -1424020.2     -287144.24      25188.768     -2622.2261      162            108            54             944784         825.87994    
   1494000  -1423738.9     -286607.2       24878.921     -2176.9888      162            108            54             944784         828.00122    
   1495000  -1424518.2     -287529.91      24867.123     -2369.527       162            108            54             944784         820.7436     
   1496000  -1423705.9     -287463.08      25194.288     -1802.0014      162            108            54             944784         823.11368    
   1497000  -1425165.4     -288536.23      24900.869     -2355.689       162            108            54             944784         823.81315    
   1498000  -1425085.5     -287803.21      24850.231     -2432.7221      162            108            54             944784         824.595      
   1499000  -1424272       -287456.22      25328.432     -1801.251       162            108            54             944784         823.6339     
   1500000  -1426606.1     -290131.75      25065.403     -2217.417       162            108            54             944784         818.81639    
   1501000  -1427134.9     -289845.92      24726.75      -1768.2316      162            108            54             944784         816.36845    
   1502000  -1426064.3     -287943.78      24940.746     -2662.0139      162            108            54             944784         818.92449    
   1503000  -1426658.3     -288887.13      25028.936     -1968.7282      162            108            54             944784         821.11617    
   1504000  -1426473.4     -288242.02      25027.382     -2510.6867      162            108            54             944784         818.55953    
   1505000  -1426128.5     -289080.33      24998.261     -1988.8328      162            108            54             944784         819.84441    
   1506000  -1427767.9     -288659.75      24585.32      -2313.1961      162            108            54             944784         816.07503    
   1507000  -1427354.6     -288165.99      24847.191     -2245.2042      162            108            54             944784         816.69802    
   1508000  -1427419.8     -288769.26      24915.34      -2321.0867      162            108            54             944784         814.28506    
   1509000  -1427474.3     -289253.94      24930.205     -2191.4953      162            108            54             944784         816.85464    
   1510000  -1427860.6     -289454.46      24866.546     -2097.5893      162            108            54             944784         811.40807    
   1511000  -1428521.8     -288995.48      24954.86      -2616.4308      162            108            54             944784         808.73513    
   1512000  -1429138.8     -289787.54      24876.736     -2072.7083      162            108            54             944784         807.08672    
   1513000  -1429486.6     -290039.27      24594.675     -2489.6979      162            108            54             944784         808.73815    
   1514000  -1429116.5     -288702.91      24481.509     -2088.6573      162            108            54             944784         808.98039    
   1515000  -1428996.9     -288652.84      24532.103     -2180.5018      162            108            54             944784         808.48133    
   1516000  -1428668.3     -289355.01      24866.086     -2843.8646      162            108            54             944784         811.57464    
   1517000  -1429536.6     -290166.12      24634.218     -2228.1886      162            108            54             944784         806.04748    
   1518000  -1428797.8     -288000.48      24725.447     -2641.391       162            108            54             944784         809.027      
   1519000  -1429825.7     -288442.74      24692.095     -2820.2641      162            108            54             944784         804.62562    
   1520000  -1429395       -287875.11      24673.38      -2609.652       162            108            54             944784         803.19261    
   1521000  -1430180       -289542.73      24748.123     -2077.4489      162            108            54             944784         801.92048    
   1522000  -1430799.6     -289554.51      24385.705     -2680.8869      162            108            54             944784         801.36617    
   1523000  -1429624.2     -289578.5       24500.551     -2013.7721      162            108            54             944784         807.05911    
   1524000  -1431550.8     -289818.65      24146.695     -2663.3754      162            108            54             944784         803.04928    
   1525000  -1430749.2     -289533.41      24187.536     -2441.1109      162            108            54             944784         803.56814    
   1526000  -1430961.4     -288547.76      24346.019     -2541.5541      162            108            54             944784         803.99065    
   1527000  -1431656.5     -289517.8       24217.414     -2679.5145      162            108            54             944784         798.93771    
   1528000  -1431428.5     -289436.81      24382.342     -2492.8717      162            108            54             944784         800.89327    
   1529000  -1432869.5     -290507.47      24018.268     -1894.0242      162            108            54             944784         797.12124    
   1530000  -1432269.1     -290181.9       24251.975     -2732.7142      162            108            54             944784         800.39712    
   1531000  -1432831.3     -290724.27      24270.276     -2247.8237      162            108            54             944784         796.59749    
   1532000  -1431851.2     -290312.11      24244.573     -2709.2885      162            108            54             944784         801.1608     
   1533000  -1433893.8     -290318.11      24105.783     -2661.8641      162            108            54             944784         799.91728    
   1534000  -1433938.7     -291535.91      23946.645     -2039.5418      162            108            54             944784         795.58984    
   1535000  -1434334.5     -290975.47      24048.389     -2263.4474      162            108            54             944784         792.45352    
   1536000  -1433688       -290735.95      24471.702     -2745.9756      162            108            54             944784         793.01519    
   1537000  -1433978.4     -290205.83      24399.693     -2574.7962      162            108            54             944784         790.52516    
   1538000  -1436048.6     -292071.73      24049.385     -2430.8161      162            108            54             944784         787.98577    
   1539000  -1434651.8     -291910.41      23951.222     -2338.6702      162            108            54             944784         792.75747    
   1540000  -1435462.9     -292966.6       24008.381     -2181.7882      162            108            54             944784         788.90494    
   1541000  -1434231.4     -291952.19      24199.198     -2321.1546      162            108            54             944784         793.81083    
   1542000  -1435739.6     -292030.18      24172.468     -2679.0214      162            108            54             944784         787.8041     
   1543000  -1435217.6     -291323.19      24232.675     -2112.6226      162            108            54             944784         793.20077    
   1544000  -1437654       -292502.76      24125.711     -2521.5011      162            108            54             944784         782.2032     
   1545000  -1436345.5     -292758.56      24091.024     -2588.587       162            108            54             944784         786.49494    
   1546000  -1437117.1     -293674.09      23821.369     -2042.4449      162            108            54             944784         788.41644    
   1547000  -1437306.2     -293832.02      23824.225     -2703.5201      162            108            54             944784         784.86215    
   1548000  -1437466.2     -292407.39      23871.436     -1702.2124      162            108            54             944784         784.28535    
   1549000  -1438282.3     -292709.08      23686.714     -2424.1573      162            108            54             944784         781.608      
   1550000  -1437356.5     -292465.58      23838.006     -2404.129       162            108            54             944784         781.55776    
   1551000  -1438810.8     -292743.7       24145.076     -2509.4342      162            108            54             944784         778.81894    
   1552000  -1437447.3     -292342.74      23851.523     -2315.3063      162            108            54             944784         785.95092    
   1553000  -1439081.8     -293238.23      23557.327     -2584.4673      162            108            54             944784         778.26662    
   1554000  -1437647.6     -291989.3       23632.688     -2543.1959      162            108            54             944784         783.06642    
   1555000  -1439115.1     -292894.32      23685.068     -2584.8492      162            108            54             944784         778.8819     
   1556000  -1439144.6     -292344.01      23473.954     -2449.8848      162            108            54             944784         778.31018    
   1557000  -1438673.4     -293094.33      23713.618     -2204.4396      162            108            54             944784         781.43668    
   1558000  -1439573.1     -293286.17      23770.263     -2459.1058      162            108            54             944784         779.82978    
   1559000  -1440604.9     -293262.61      23654.116     -2580.4274      162            108            54             944784         772.68259    
   1560000  -1440657.1     -293411.42      23651.091     -2463.2657      162            108            54             944784         775.52938    
   1561000  -1441717.2     -294180.41      23238.606     -2511.7393      162            108            54             944784         773.4693     
   1562000  -1441300.8     -294746.39      23341.165     -1875.0466      162            108            54             944784         775.48145    
   1563000  -1441655.8     -295333.83      23109.64      -2668.7016      162            108            54             944784         773.87087    
   1564000  -1441192.5     -295439.15      23591.586     -2207.852       162            108            54             944784         779.37099    
   1565000  -1442834.8     -295520.52      23381.843     -1878.8573      162            108            54             944784         769.23539    
   1566000  -1442549.1     -295405.89      23336.28      -2375.3641      162            108            54             944784         775.45135    
   1567000  -1443139.5     -294953.72      22961.034     -2531.312       162            108            54             944784         771.66183    
   1568000  -1443979.5     -296245.24      22935.929     -1992.231       162            108            54             944784         771.37279    
   1569000  -1444454.5     -296917.97      23213.778     -2521.2753      162            108            54             944784         771.04481    
   1570000  -1444180.2     -297649.57      22974.763     -2108.3042      162            108            54             944784         777.44671    
   1571000  -1445709.7     -298018.04      22903.321     -2031.7305      162            108            54             944784         769.19965    
   1572000  -1445815.5     -298182.59      23151.058     -2192.7655      162            108            54             944784         768.63388    
   1573000  -1446478       -297546.43      22848.556     -1877.4425      162            108            54             944784         767.68501    
   1574000  -1446683.8     -297013.69      23280.51      -2347.0454      162            108            54             944784         762.21361    
   1575000  -1447121.8     -300172.5       23123.983     -1901.1348      162            108            54             944784         763.67108    
   1576000  -1447481.1     -299048.89      23011.873     -2110.0083      162            108            54             944784         764.29334    
   1577000  -1448305.7     -298988.1       23128.066     -1926.7263      162            108            54             944784         759.94581    
   1578000  -1449725       -301202.45      22677.445     -1622.6747      162            108            54             944784         761.43842    
   1579000  -1450621.6     -301463.13      22354.021     -2116.6782      162            108            54             944784         758.87252    
   1580000  -1449963.8     -302032.36      22809.104     -1547.6364      162            108            54             944784         762.47004    
   1581000  -1451155.5     -301469.49      22556.259     -1461.3492      162            108            54             944784         759.76855    
   1582000  -1452825       -303897.83      22695.609     -1500.498       162            108            54             944784         753.86634    
   1583000  -1453112.6     -304187.4       22435.072     -1483.6074      162            108            54             944784         757.54331    
   1584000  -1454319.7     -304732.09      22306.858     -1388.0926      162            108            54             944784         756.2135     
   1585000  -1453060.4     -305497.01      22375.943     -903.67666      162            108            54             944784         761.11356    
   1586000  -1454065.3     -305839.95      22151.931     -1296.6245      162            108            54             944784         758.56842    
   1587000  -1455512.4     -305073.13      22048.789     -1438.1847      162            108            54             944784         753.08665    
   1588000  -1455842.3     -307456.45      22290.269     -779.00676      162            108            54             944784         752.41921    
   1589000  -1456189       -306981.74      22442.854     -1448.2452      162            108            54             944784         754.25843    
   1590000  -1456263.8     -307939.44      22425.692     -684.56015      162            108            54             944784         754.67543    
   1591000  -1456705.9     -308034.87      22427.487     -731.38451      162            108            54             944784         753.23015    
   1592000  -1457484.5     -308882.35      22226.299     -1208.7352      162            108            54             944784         755.6743     
   1593000  -1458520.3     -309308.93      22309.892     -843.98231      162            108            54             944784         751.64127    
   1594000  -1457583.5     -309561.47      22127.045     -477.61984      162            108            54             944784         754.65189    
   1595000  -1459237.6     -310303.84      22265.23      -860.3953       162            108            54             944784         752.11044    
   1596000  -1460002.5     -311877.53      22074.199     -774.5814       162            108            54             944784         753.94346    
   1597000  -1459324.8     -311384.7       22489.243     -348.53749      162            108            54             944784         749.39701    
   1598000  -1460487.5     -311661.99      22423.775     -766.41682      162            108            54             944784         745.96451    
   1599000  -1459563.3     -310323.01      22352.996     -899.36061      162            108            54             944784         753.37854    
   1600000  -1461063.7     -311474.33      22068.852     -720.0967       162            108            54             944784         750.0104     
   1601000  -1460734.3     -311191.3       22297.731     -565.52814      162            108            54             944784         744.66322    
   1602000  -1461030.3     -311166.47      22246.747     -634.38584      162            108            54             944784         746.00727    
   1603000  -1461179.4     -311622.43      22123.469     -921.55906      162            108            54             944784         749.0738     
   1604000  -1462255       -312744.37      22221.188     -256.16267      162            108            54             944784         746.58361    
   1605000  -1461971.5     -311213.36      22264.506     -1058.7962      162            108            54             944784         744.32672    
   1606000  -1463123.8     -312361.31      21936.155     -693.11606      162            108            54             944784         738.7789     
   1607000  -1462822.9     -311144.72      22055.239     -832.76541      162            108            54             944784         742.41939    
   1608000  -1463062       -311046.72      22082.213     -922.24366      162            108            54             944784         742.15256    
   1609000  -1462841.4     -312593.68      22355.538     -799.39119      162            108            54             944784         739.3548     
   1610000  -1464658.2     -313827.69      22116.706     -888.03276      162            108            54             944784         736.69026    
   1611000  -1464076.8     -312725.37      22187.11      -394.52954      162            108            54             944784         738.10814    
   1612000  -1464055.8     -313615.58      22163.661     -590.58816      162            108            54             944784         741.82777    
   1613000  -1464414.2     -313593.67      22108.186     -838.74845      162            108            54             944784         739.21207    
   1614000  -1464702.1     -313801.94      22055.624     -376.55272      162            108            54             944784         737.41645    
   1615000  -1465820       -314057.42      21855.186     -878.98174      162            108            54             944784         737.68398    
   1616000  -1464874.9     -314630.05      21950.599     -422.97586      162            108            54             944784         738.36786    
   1617000  -1466275.1     -314091.78      22035.935     -574.48209      162            108            54             944784         734.0669     
   1618000  -1466590.8     -315276.51      21985.099     -610.84808      162            108            54             944784         734.50919    
   1619000  -1467026.1     -314375.37      21970.156     -1088.1195      162            108            54             944784         733.22264    
   1620000  -1467272.5     -315550.83      21875.901     -548.54902      162            108            54             944784         736.28384    
   1621000  -1466546.1     -315485         22030.05      -460.20923      162            108            54             944784         738.91723    
   1622000  -1468016.9     -315473.62      21912.97      -554.0006       162            108            54             944784         728.43955    
   1623000  -1468290.8     -316137.83      21945.568     -749.37187      162            108            54             944784         731.00529    
   1624000  -1468741.2     -316165.96      21793.001     -254.78299      162            108            54             944784         732.00346    
   1625000  -1467984.2     -316730.38      21485.992     -521.07252      162            108            54             944784         735.46306    
   1626000  -1469388.1     -316502.39      21800.823     -421.86423      162            108            54             944784         728.45369    
   1627000  -1469905.5     -316594.82      21790.277     -316.16435      162            108            54             944784         728.06502    
   1628000  -1468713.6     -317091.25      21817.362     -345.73771      162            108            54             944784         732.04959    
   1629000  -1469922.1     -316358.16      21732.68      -480.81712      162            108            54             944784         727.00531    
   1630000  -1470340.9     -316793.78      21865.363     -644.14342      162            108            54             944784         725.61638    
   1631000  -1470229.9     -316913.41      21500.455     -463.19827      162            108            54             944784         725.56136    
   1632000  -1471071.9     -318134.15      21472.42      -223.84652      162            108            54             944784         722.89674    
   1633000  -1471203.2     -317312.05      21607.219     -660.84133      162            108            54             944784         722.63896    
   1634000  -1470174.5     -316501.14      21549.494     -361.88607      162            108            54             944784         724.62962    
   1635000  -1470713.4     -316594.69      21793.431     -687.93707      162            108            54             944784         723.31972    
   1636000  -1471650.9     -317013.41      21765.051     -756.68701      162            108            54             944784         720.16752    
   1637000  -1472280.2     -317827.32      21651.472     -812.49675      162            108            54             944784         719.6704     
   1638000  -1472267.5     -317273.83      21326.043     -347.74812      162            108            54             944784         718.78144    
   1639000  -1472590.9     -317881.27      21618.177     -609.47789      162            108            54             944784         720.30509    
   1640000  -1472063.7     -318979.71      21755.419     -201.09055      162            108            54             944784         721.29807    
   1641000  -1472884.5     -317737.95      21335.805     -244.57747      162            108            54             944784         718.30329    
   1642000  -1471853.2     -319492.78      21586.494     -442.58601      162            108            54             944784         725.52372    
   1643000  -1474569.4     -319077.27      21435.867     -581.38246      162            108            54             944784         712.15249    
   1644000  -1473695.2     -317650.77      21868.524     -593.022        162            108            54             944784         717.23641    
   1645000  -1475108.7     -319142.45      21668.407     -480.62333      162            108            54             944784         709.97381    
   1646000  -1474244.6     -318084.41      21654.049     -818.4774       162            108            54             944784         716.27338    
   1647000  -1474378.9     -319526.5       21489.645     -348.0769       162            108            54             944784         714.2636     
   1648000  -1475783.5     -319622.91      21523.256     -751.51849      162            108            54             944784         711.5242     
   1649000  -1476740.8     -319735.79      21125.281     -215.73859      162            108            54             944784         708.72459    
   1650000  -1476291.1     -320718.25      21363.652     -468.8467       162            108            54             944784         711.44849    
   1651000  -1477722       -320850.65      21041.441     -643.04614      162            108            54             944784         706.38857    
   1652000  -1476430.2     -319926.04      21380.995     -443.69118      162            108            54             944784         711.15619    
   1653000  -1475511.3     -319969.67      21508.579     -306.53352      162            108            54             944784         713.6078     
   1654000  -1477043.4     -321416.05      21561.715     -335.59997      162            108            54             944784         708.90014    
   1655000  -1477063.7     -321323.23      21214.181     -77.04505       162            108            54             944784         709.56811    
   1656000  -1477721.4     -320719.66      21533.657     -248.2564       162            108            54             944784         705.15976    
   1657000  -1478239.8     -319824.77      20960.671     -770.94989      162            108            54             944784         707.73884    
   1658000  -1477643.9     -321036.73      21379.057     -244.54086      162            108            54             944784         708.03723    
   1659000  -1478399.2     -320870.07      21111.302     -215.6611       162            108            54             944784         703.16462    
   1660000  -1477903.1     -321005.17      21105.765     -708.97268      162            108            54             944784         705.58698    
   1661000  -1477592.4     -320696.27      21293.847     -465.71322      162            108            54             944784         708.09905    
   1662000  -1478580.1     -320274.78      21274.953     -558.10621      162            108            54             944784         704.96034    
   1663000  -1479837.3     -321279.15      20974.645     -527.33703      162            108            54             944784         699.56786    
   1664000  -1478664.4     -320587.7       21052.677     -461.8568       162            108            54             944784         703.90257    
   1665000  -1480426.5     -320860.34      21010.658     -558.26529      162            108            54             944784         698.13008    
   1666000  -1480359.9     -321285.58      21053.519     -760.27286      162            108            54             944784         700.12449    
   1667000  -1479464.9     -321717.02      21036.106     -82.814495      162            108            54             944784         700.50967    
   1668000  -1480623.3     -321102.42      20879.621     -574.07828      162            108            54             944784         697.74579    
   1669000  -1480404.4     -322477.04      20753.848     -457.17093      162            108            54             944784         700.22248    
   1670000  -1481486.7     -321713.13      21150.349     -361.6097       162            108            54             944784         694.4225     
   1671000  -1480918       -322734.27      21022.363     -514.85637      162            108            54             944784         700.01031    
   1672000  -1482857       -322987.6       20772.299     -480.73562      162            108            54             944784         691.61034    
   1673000  -1482306       -322680.17      21042.192     -341.33367      162            108            54             944784         694.00143    
   1674000  -1481344.5     -322847.45      20946.425     -331.12052      162            108            54             944784         697.08404    
   1675000  -1483286       -322324.9       20734.554     -310.96594      162            108            54             944784         689.37779    
   1676000  -1482966.2     -322648.73      20894.487     -374.05271      162            108            54             944784         689.10203    
   1677000  -1484133.5     -324197.57      20842.467     -547.44523      162            108            54             944784         689.74169    
   1678000  -1482699       -322629.47      21139.222     -291.23818      162            108            54             944784         692.58003    
   1679000  -1483247.2     -322733.82      20458.591     -181.33905      162            108            54             944784         696.85134    
   1680000  -1483425.3     -321981.73      20869.162     -469.9325       162            108            54             944784         688.68293    
   1681000  -1483814.5     -323699.62      20629.072     -419.98803      162            108            54             944784         691.79749    
   1682000  -1484920.3     -323787.36      20545.036     -614.29845      162            108            54             944784         683.5247     
   1683000  -1485055.2     -323852.03      20690.118     -53.967342      162            108            54             944784         687.18254    
   1684000  -1484764.5     -324810.29      20557.137     -531.80566      162            108            54             944784         691.78666    
   1685000  -1484614.4     -324939.23      20850.364     -83.735487      162            108            54             944784         690.12146    
   1686000  -1485317.1     -324257.48      20852.469     -511.87929      162            108            54             944784         688.85648    
   1687000  -1484900.7     -324709.4       20517.895     -296.71367      162            108            54             944784         691.37096    
   1688000  -1486887.9     -324749.87      20494.119     -395.26519      162            108            54             944784         682.32384    
   1689000  -1486853.7     -324943.46      20580.346     -532.12479      162            108            54             944784         684.38254    
   1690000  -1486477       -324546.94      20428.647     -520.83132      162            108            54             944784         683.94869    
   1691000  -1487055.6     -325293.45      20447.765     -595.89343      162            108            54             944784         682.7871     
   1692000  -1486834.1     -325399.45      20674.397     -275.86672      162            108            54             944784         686.58581    
   1693000  -1486987.1     -325152.29      20589.147     -334.78058      162            108            54             944784         685.181      
   1694000  -1487748.5     -325455.91      20693.859     -564.65909      162            108            54             944784         679.9333     
   1695000  -1487739.7     -325484.5       20619.508     -538.33949      162            108            54             944784         679.90767    
   1696000  -1488295.7     -325453.86      20305.468     -374.97049      162            108            54             944784         681.6862     
   1697000  -1487806       -325175.26      20425.691     -401.41916      162            108            54             944784         681.53886    
   1698000  -1488765.9     -325204.47      20508.055     -606.23886      162            108            54             944784         677.35349    
   1699000  -1489107.2     -326094.69      20551.357     -237.15684      162            108            54             944784         679.48671    
   1700000  -1488386.3     -324907.16      20739.175     -394.64828      162            108            54             944784         678.37099    
   1701000  -1489191.6     -327266.77      20675.186     -406.2455       162            108            54             944784         676.15444    
   1702000  -1490373.4     -327679.55      20597.295     -271.21198      162            108            54             944784         671.93212    
   1703000  -1490395       -326635.34      20533.428     -215.59591      162            108            54             944784         672.68819    
   1704000  -1491057.9     -327540.37      20412.202     -340.42085      162            108            54             944784         670.5524     
   1705000  -1491029       -327124.34      20551.737     -525.60516      162            108            54             944784         670.28444    
   1706000  -1491635.8     -327816.92      20186.331     -259.81122      162            108            54             944784         669.72912    
   1707000  -1490422.4     -326274.97      20367.581     -444.24856      162            108            54             944784         674.63797    
   1708000  -1491124.1     -327157.51      20192.586     -597.63146      162            108            54             944784         673.04241    
   1709000  -1491936.8     -326980.88      20088.238     -311.41076      162            108            54             944784         671.20336    
   1710000  -1492386.1     -326788.2       20051.477     -742.61466      162            108            54             944784         669.63237    
   1711000  -1492657.9     -328147.57      20258.463     -560.29031      162            108            54             944784         669.17507    
   1712000  -1492673.4     -327499.96      20390.961     -422.95372      162            108            54             944784         664.94537    
   1713000  -1493400.6     -327713.76      20165.84      -418.00338      162            108            54             944784         662.26495    
   1714000  -1493506.7     -328131.37      19949.367     -596.30898      162            108            54             944784         666.05461    
   1715000  -1494395.6     -327963.28      20017.147     -445.07819      162            108            54             944784         664.31801    
   1716000  -1493673.9     -327703         20119.416     -70.669804      162            108            54             944784         663.24586    
   1717000  -1494601.7     -328411.11      20186.283     -641.16947      162            108            54             944784         662.85541    
   1718000  -1494340.2     -328836.2       19857.547     -671.30691      162            108            54             944784         663.62166    
   1719000  -1494730.2     -329072.56      20367.017      253.93387      162            108            54             944784         661.23668    
   1720000  -1494968.6     -328678.88      19962.133     -561.65932      162            108            54             944784         663.3663     
   1721000  -1495917.3     -328832.58      19709.477     -731.8991       162            108            54             944784         660.59716    
   1722000  -1495821.6     -328634.84      19921.507      67.930911      162            108            54             944784         656.05979    
   1723000  -1495305.6     -328620.86      20102.937     -628.71774      162            108            54             944784         660.79143    
   1724000  -1495475.5     -329179.9       20128.82      -427.50692      162            108            54             944784         659.21278    
   1725000  -1496724.9     -329028.42      19767.955     -345.37604      162            108            54             944784         654.83145    
   1726000  -1495475.7     -328884.66      19888.209     -486.37765      162            108            54             944784         662.04892    
   1727000  -1496302.3     -327844         19819.434     -739.22931      162            108            54             944784         655.71375    
   1728000  -1497534.4     -328843.59      19787.736     -487.74628      162            108            54             944784         656.21837    
   1729000  -1497192       -329136.12      19768.585     -779.79482      162            108            54             944784         655.7664     
   1730000  -1497558.5     -328881.17      19755.591     -595.65082      162            108            54             944784         654.18194    
   1731000  -1496883       -329205.88      19836.606     -263.62376      162            108            54             944784         655.84224    
   1732000  -1498141.1     -330020.94      19923.498     -483.60351      162            108            54             944784         651.84614    
   1733000  -1498744.7     -329443.34      19777.027     -456.89814      162            108            54             944784         650.5375     
   1734000  -1499396.8     -330024.29      19503.729     -284.91831      162            108            54             944784         648.13839    
   1735000  -1498975.9     -330404.61      19425.695     -558.92596      162            108            54             944784         651.71168    
   1736000  -1498496.3     -330047.03      19776.352      108.0874       162            108            54             944784         649.93756    
   1737000  -1499552.5     -330632.9       19611.648     -589.94988      162            108            54             944784         647.61755    
   1738000  -1498570.5     -329793.57      19599.357     -657.24536      162            108            54             944784         651.22047    
   1739000  -1499424.2     -329263.57      19528.4       -606.76961      162            108            54             944784         647.07917    
   1740000  -1499383.1     -329834.52      19619.901     -846.04647      162            108            54             944784         647.39066    
   1741000  -1499203.2     -330094.82      19840.688     -378.59137      162            108            54             944784         649.63646    
   1742000  -1500093.6     -330857.81      19487.354     -362.70779      162            108            54             944784         648.48288    
   1743000  -1501150.8     -330947.02      19551.211     -469.00329      162            108            54             944784         638.9778     
   1744000  -1500446.4     -329431.95      19286.739     -629.8299       162            108            54             944784         646.02086    
   1745000  -1501140.3     -331037.42      19477.347     -328.27065      162            108            54             944784         642.55084    
   1746000  -1501579.5     -331786.85      19436.897     -380.65511      162            108            54             944784         644.75981    
   1747000  -1501598.2     -330849.1       19377.914     -108.75895      162            108            54             944784         641.45519    
   1748000  -1501576       -332330.94      19134.611     -415.96611      162            108            54             944784         643.33679    
   1749000  -1502826.9     -331773.32      19254.453     -514.25359      162            108            54             944784         636.78962    
   1750000  -1502774.3     -331356.83      19363.167     -352.62326      162            108            54             944784         637.47237    
   1751000  -1502669       -331515.57      19248.64      -528.27369      162            108            54             944784         638.79703    
   1752000  -1502861.1     -331242         19268.679     -524.89143      162            108            54             944784         640.71282    
   1753000  -1502589.7     -330587.32      19002.488     -301.01783      162            108            54             944784         638.57002    
   1754000  -1504095.3     -331884.58      19355.203     -723.93155      162            108            54             944784         637.22092    
   1755000  -1503695.6     -331238.24      19035.919     -251.82392      162            108            54             944784         637.71387    
   1756000  -1504581.8     -332112.81      18945.657     -837.04817      162            108            54             944784         633.85508    
   1757000  -1505572.7     -332821.89      19164.123     -251.76529      162            108            54             944784         632.01054    
   1758000  -1504879.3     -332693.33      18980.839     -412.8615       162            108            54             944784         636.25537    
   1759000  -1505246.9     -333240.26      19237.726     -680.33929      162            108            54             944784         634.40551    
   1760000  -1505894.8     -332830.54      19087.672     -18.969523      162            108            54             944784         627.80005    
   1761000  -1504903.1     -332826.61      18930.324     -667.80296      162            108            54             944784         637.81647    
   1762000  -1506234.7     -332772.57      19008.487     -794.96953      162            108            54             944784         632.51326    
   1763000  -1505654.7     -332680.06      19127.285     -321.14637      162            108            54             944784         630.55867    
   1764000  -1506105.3     -332704.18      18967.597     -442.43907      162            108            54             944784         631.48764    
   1765000  -1506493.2     -333851.29      18876.826     -561.24591      162            108            54             944784         629.95672    
   1766000  -1506936       -333496.32      18857.419     -472.83497      162            108            54             944784         630.21567    
   1767000  -1508097.4     -333908.78      18765.277     -322.55075      162            108            54             944784         627.16936    
   1768000  -1507406.8     -334043.21      18889.273     -347.23973      162            108            54             944784         628.37484    
   1769000  -1508425.6     -334739.31      18817.36      -256.13009      162            108            54             944784         627.18251    
   1770000  -1507687.4     -334871.19      18888.908     -213.0191       162            108            54             944784         630.60727    
   1771000  -1509095.7     -334271.87      18702.718     -271.6162       162            108            54             944784         622.4257     
   1772000  -1508934.8     -335127.25      18759.823     -487.96415      162            108            54             944784         625.07972    
   1773000  -1509646.6     -334760.54      18731.709     -894.851        162            108            54             944784         621.56695    
   1774000  -1509423.4     -334954.41      18774.815     -82.789085      162            108            54             944784         621.6243     
   1775000  -1510313.5     -334863.6       18752.955     -322.33343      162            108            54             944784         619.51194    
   1776000  -1509423       -334852.38      18535.484     -575.46343      162            108            54             944784         623.43477    
   1777000  -1510299.4     -335478.14      18377.183     -270.94538      162            108            54             944784         621.98223    
   1778000  -1509685.1     -334855.11      18654.745     -254.7558       162            108            54             944784         620.29144    
   1779000  -1510864.1     -335470.72      18625.576     -657.73097      162            108            54             944784         616.77554    
   1780000  -1510998.8     -335759.57      18824.564     -223.10148      162            108            54             944784         615.59923    
   1781000  -1511243.6     -335239.56      18255.272     -102.13773      162            108            54             944784         617.99481    
   1782000  -1510915.8     -334866.45      18473.756     -905.80244      162            108            54             944784         618.36662    
   1783000  -1511652       -334937.36      18396.152     -229.81476      162            108            54             944784         615.33443    
   1784000  -1511431.3     -334842.67      18454.233     -222.11387      162            108            54             944784         615.49176    
   1785000  -1512666.5     -334701.74      18404.201     -825.67373      162            108            54             944784         611.02843    
   1786000  -1512103.7     -334988.21      18292.899     -680.81371      162            108            54             944784         614.52157    
   1787000  -1512716.6     -335841.3       18402.186     -375.15037      162            108            54             944784         610.98146    
   1788000  -1513615.1     -335116.6       18131.002     -754.98659      162            108            54             944784         609.19473    
   1789000  -1512781.2     -336431.47      18532.237     -264.47938      162            108            54             944784         610.73836    
   1790000  -1513100.1     -336181.13      18349.048     -680.4184       162            108            54             944784         610.84326    
   1791000  -1513592.6     -336066.12      18543.88      -301.31312      162            108            54             944784         610.73678    
   1792000  -1514674.3     -336451.96      18208.439     -277.46724      162            108            54             944784         605.98413    
   1793000  -1513458.4     -336737.01      18381.854     -987.94847      162            108            54             944784         612.55469    
   1794000  -1514770.4     -336710.56      18275.643     -236.05379      162            108            54             944784         607.79817    
   1795000  -1515190.6     -336759.86      18273.761     -495.69881      162            108            54             944784         605.49286    
   1796000  -1514959.2     -336766.78      18223.984     -398.91558      162            108            54             944784         608.23099    
   1797000  -1514649.3     -336955.12      18378.614     -430.90141      162            108            54             944784         608.752      
   1798000  -1515567.5     -336335.36      18275.305     -690.15621      162            108            54             944784         602.62873    
   1799000  -1516990.4     -337539.23      17882.543     -398.98137      162            108            54             944784         603.19819    
   1800000  -1515934.6     -336820.28      18340.089     -594.80941      162            108            54             944784         605.51783    
   1801000  -1516472.8     -338430.6       18315.279     -448.96001      162            108            54             944784         603.3041     
   1802000  -1517022.2     -338725.48      18171.222     -257.52189      162            108            54             944784         600.56179    
   1803000  -1517403.6     -338104.92      17926.16      -615.66248      162            108            54             944784         606.51661    
   1804000  -1518131       -338512         18074.658     -214.99491      162            108            54             944784         599.3289     
   1805000  -1517514.7     -339084.67      18114.813     -475.89865      162            108            54             944784         600.80333    
   1806000  -1517193.5     -337789.15      18053.089     -907.43753      162            108            54             944784         602.28801    
   1807000  -1518093       -337762.57      18296.57      -421.23664      162            108            54             944784         598.33421    
   1808000  -1518015.2     -338921.45      18467.345     -86.415859      162            108            54             944784         598.35842    
   1809000  -1518736.1     -338737.69      18031.955     -628.87575      162            108            54             944784         598.85463    
   1810000  -1518915.7     -338666.33      17999.615     -552.63261      162            108            54             944784         595.33501    
   1811000  -1519601.2     -339201.73      18002.614     -132.1322       162            108            54             944784         597.10065    
   1812000  -1519537.6     -338638.88      18115.935     -845.56346      162            108            54             944784         596.65076    
   1813000  -1519640.5     -338754.58      18018.799     -736.34302      162            108            54             944784         597.02178    
   1814000  -1520043.8     -339154.24      17934.714     -262.09776      162            108            54             944784         594.34871    
   1815000  -1520258.1     -339552.24      17795.776     -249.76389      162            108            54             944784         595.74719    
   1816000  -1519393.9     -339406.21      17946.208     -566.77736      162            108            54             944784         593.58303    
   1817000  -1520947.3     -339823.61      18023.944     -445.36198      162            108            54             944784         589.5477     
   1818000  -1521510.3     -340552.86      17828.239     -142.52421      162            108            54             944784         588.88208    
   1819000  -1521625.4     -340527.35      17700.974     -158.83462      162            108            54             944784         591.02049    
   1820000  -1521411.7     -340508.51      17823.951     -403.55996      162            108            54             944784         591.07936    
   1821000  -1521984.7     -340417.06      17818.792     -554.91081      162            108            54             944784         585.91717    
   1822000  -1522499.6     -340224.48      17871.898      41.948445      162            108            54             944784         585.81695    
   1823000  -1522799.9     -340608.37      17911.514     -576.05322      162            108            54             944784         585.29141    
   1824000  -1521440.6     -340516.98      17796.467     -545.59407      162            108            54             944784         588.75039    
   1825000  -1522896.4     -340568.08      17408.789     -112.15093      162            108            54             944784         588.50254    
   1826000  -1522273.3     -341001.63      17561.191     -240.27675      162            108            54             944784         588.627      
   1827000  -1524010.8     -341692.66      17560.453     -421.39218      162            108            54             944784         583.88107    
   1828000  -1524427.3     -341801.61      17415.937     -338.33329      162            108            54             944784         582.74093    
   1829000  -1524248.3     -340347.36      17254.222     -540.25353      162            108            54             944784         584.46634    
   1830000  -1524550       -342273.71      17611.196     -334.75259      162            108            54             944784         583.67911    
Loop time of 140243 on 2 procs for 1000000 steps with 50400 atoms

Performance: 0.616 ns/day, 38.957 hours/ns, 7.130 timesteps/s, 359.375 katom-step/s
99.7% CPU use with 2 MPI tasks x no OpenMP threads

MPI task timing breakdown:
Section |  min time  |  avg time  |  max time  |%varavg| %total
---------------------------------------------------------------
Pair    | 1.0282e+05 | 1.0787e+05 | 1.1291e+05 |1536.6 | 76.91
Bond    | 1582.1     | 1646.7     | 1711.4     | 159.3 |  1.17
Kspace  | 18448      | 23348      | 28248      |3206.6 | 16.65
Neigh   | 5240.9     | 5241.9     | 5242.9     |   1.4 |  3.74
Comm    | 481.51     | 696.69     | 911.88     | 815.3 |  0.50
Output  | 817.55     | 817.56     | 817.57     |   0.0 |  0.58
Modify  | 436.57     | 451.03     | 465.48     |  68.1 |  0.32
Other   |            | 176.2      |            |       |  0.13

Nlocal:          25200 ave       29574 max       20826 min
Histogram: 1 0 0 0 0 0 0 0 0 1
Nghost:        33113.5 ave       37130 max       29097 min
Histogram: 1 0 0 0 0 0 0 0 0 1
Neighs:    7.36069e+06 ave 8.81732e+06 max 5.90407e+06 min
Histogram: 1 0 0 0 0 0 0 0 0 1

Total # of neighbors = 14721387
Ave neighs/atom = 292.09101
Ave special neighs/atom = 2.4
Neighbor list builds = 34229
Dangerous builds = 0




##### Calculo de viscosidad
#variable 	pxy equal pxy
#fix		aveStress all ave/correlate 10 100 1000 v_pxy type auto
#variable 	visc equal (vol/v_boltzmann*temp)*trap(f_aveStress[1])
#fix		impVisc all print 1000 "temp: ${temp} viscosity: ${visc}" file viscTemp.data screen no

##### Calculo tensi√≥n superficial
## Para este c√°lculo es necesario utilizar el tensor de presi√≥n, por lo que es necesario calcularlo.

#replicate	1 1 2
#compute 	pressTensor all pressure NULL
#variable	press equal pzz-0.5*(pxx+pyy)
#fix 		avePress all ave/time 10 100 1000 v_press
#variable	surfaceTension equal 0.5*lz*f_avePress
#fix		impSurfaceTemp all print 1000 "temp: ${temp} surface_tension: ${surfaceTension}" file surfaceTemp.data screen no

#####Calculo de la conductividad t√©rmica

#compute		heat_flux all heat/flux ke pe Stress
#fix		heat_flux_corr all ave/correlate 10 100 1000 c_heat_flux[*] type auto
#variable 	thermal_conductivity equal (1/(3*v_boltzmann*vol*temp))*trap(f_heat_flux_corr[1])
#fix		impThemalCond all print 1000 "temp: ${temp} thermal_conductivity: ${thermal_conductivity}" file thermalCond_temp.data screen no

#### Calculo del coeficiente de difusi√≥n.
## Basado en el ejemplo de LAMMPS, utilizando el MSD.

#variable 	parPuntos equal c_msd[4]/4/(step*dt+1.0e-6)
#fix		vectorParOrdenado all vector 10 c_msd[4]
#variable 	diffCoeff equal slope(f_vectorParOrdenado)/4/(10*dt)

#fix 		impDiffCoeff all print 1000 "time: ${time} diffusion_coefficient: ${diffCoeff}" file diffCoeff.data screen no

#fix             nvt all nvt temp 293 293 $(100*dt)
#run             100000
#unfix nvt

#fix             npt all npt iso 0 0 $(1000*dt) temp 293 1300 $(100*dt)
#run             300000
#unfix           npt

#fix             nvt all nvt temp 1300 1300 $(100*dt)

#run             500000
#unfix nvt

#fix             npt all npt iso 0 0 $(1000*dt) temp 1300 583 $(100*dt)
#run             1000000
#unfix           npt

#Se exportan en el siguiente orden para que funcione con la funci√≥n de imprimir RDF en python.

#compute          myRDF all rdf 1000 1 1 1 3 1 2 3 3 2 3 2 2 cutoff 11.0
#fix             ave all ave/time 10 100 10000  c_myRDF[*] file rdf.yml mode vector

#fix             nvt all nvt temp 583 583 $(100*dt)
#run             500000
#unfix nvt

write_data data_buck_EQ.data
System init for write_data ...
PPPM initialization ...
  using 12-bit tables for long-range coulomb (../kspace.cpp:342)
  G vector (1/distance) = 0.24196708
  grid = 72 50 30
  stencil order = 5
  estimated absolute RMS force accuracy = 0.034752741
  estimated relative force accuracy = 0.00010465685
  using double precision KISS FFT
  3d grid and FFT values/proc = 83435 54000
Generated 0 of 3 mixed pair_coeff terms from geometric mixing rule
WARNING: Not all mixed pair coeffs generated from mixing. Use write_data with 'pair ij' option to store all pair coeffs. (../write_data.cpp:368)

Total wall time: 69:51:56
